 C Pt                                   
   1.0000000000000000     
    17.0979999999999990    0.0000000000000000    0.0000000000000000
     0.0000000000000000   19.7420000000000009    0.0000000000000000
     0.0000000000000000    0.0000000000000000   20.0000000000000000
   C    Pt
   128    12
Direct
  0.4164677798595658  0.0937994047523377  0.3735609515463810
  0.4164404885631663  0.2185930889699509  0.3753736252384525
  0.4160955123323984  0.3432207994358712  0.3762759627917805
  0.4151556539453221  0.4685752745981598  0.3639738851134135
  0.4169948640977464  0.5944679153151058  0.3604476114708035
  0.4157488634266048  0.7196197850567138  0.3641278232134747
  0.4159969669515755  0.8441984423380725  0.3730961193976883
  0.4164496843851256  0.9688998705914312  0.3740854674815284
  0.2914281907829872  0.0314220635738936  0.3733050272515081
  0.2914006328599507  0.1562341098779950  0.3740068965723228
  0.2911392808138905  0.2810089144789824  0.3747648502440209
  0.2908908476073336  0.4058016588804198  0.3697096470869990
  0.2904764654865270  0.5305312710032786  0.3663465610788968
  0.2908704223950647  0.6569039746697682  0.3723827634548530
  0.2911177665865945  0.7817787033244343  0.3721567631111388
  0.2912749649318557  0.9066111080467497  0.3734595455043856
  0.1663812647939878  0.0938697594694863  0.3730843193751338
  0.1663034971842839  0.2186554353875539  0.3735611220451457
  0.1662274884308596  0.3435209058792239  0.3730848333300208
  0.1660134734124695  0.4685187646896217  0.3705421169706333
  0.1657903598755856  0.5938779995818608  0.3710432344112452
  0.1660017348409948  0.7190787331903370  0.3732923926830705
  0.1663501898032799  0.8439730504148851  0.3739097941075790
  0.1663985155539723  0.9689557619374192  0.3733636699209132
  0.0414343277123817  0.0314637959677255  0.3731800226242321
  0.0414175168465579  0.1562811571913773  0.3731834547469817
  0.0414213284050775  0.2811688869507973  0.3737576888206121
  0.0413391847048595  0.4061304867715381  0.3734356746201102
  0.0412398991705706  0.5312301379897337  0.3727944675323945
  0.0412505896981225  0.6564647251556441  0.3731658702531283
  0.0413472814178159  0.7815035537344189  0.3737227870487290
  0.0414439146793015  0.9064710458045744  0.3736140527050409
  0.9164978170938008  0.0938700178507419  0.3731834038796992
  0.9165290254740653  0.2187503323522978  0.3735686004281241
  0.9165006857954209  0.3437280268833433  0.3738561179029013
  0.9165424957225941  0.4687385149890686  0.3733039307737790
  0.9164266849221255  0.5938637607535144  0.3729430354186575
  0.9166580369056087  0.7190325572859823  0.3727318791668238
  0.9165210061568185  0.8440694524063933  0.3732920726591613
  0.9164818185469858  0.9690098801430942  0.3732945200965475
  0.7915061119371211  0.0314646042244667  0.3732219573420675
  0.7914885596521102  0.1563542313775029  0.3731424389005419
  0.7915730675758534  0.2813141247431776  0.3733870047151504
  0.7917077219675642  0.4062300170197539  0.3724194652800494
  0.7917747813460215  0.5311990084246412  0.3715626849871849
  0.7920466602333371  0.6566433205439840  0.3710754653189210
  0.7918135211763704  0.7816817100417840  0.3716201012303555
  0.7916238409903844  0.9065847919167209  0.3728401882183950
  0.6664845603004389  0.0939050636370130  0.3731468248385079
  0.6665447464563072  0.2188432147883774  0.3732974846995842
  0.6667432712485674  0.3436918736507806  0.3710394906528403
  0.6671918040356271  0.4686335204466588  0.3667881961930832
  0.6669073573854492  0.5940282811987456  0.3742762657313258
  0.6679182633082202  0.7193486729449075  0.3693946240613267
  0.6666004603487913  0.8443961974853713  0.3726583678289674
  0.6664851907017237  0.9690633031795860  0.3734493422473774
  0.5414304961959508  0.0315334749442796  0.3734481127684908
  0.5414593006065005  0.1563159478915898  0.3737386867839005
  0.5416510561175746  0.2810651132013643  0.3736570462260737
  0.5422525332799766  0.4059584231728887  0.3684462899689697
  0.5418336340417604  0.5302247753234816  0.3597862541886853
  0.5404718452853530  0.6566634374810475  0.3613303893533663
  0.5410635830905069  0.7817834130974569  0.3763148888472424
  0.5415379954744115  0.9067046371314986  0.3747605580940545
  0.3330894486268270  0.0938346215060532  0.3735728582115864
  0.3330612886333990  0.2186852010694485  0.3750877535651826
  0.3325955893676937  0.3434975956924101  0.3741490873176168
  0.3323745879608480  0.4682717918860968  0.3647902538208772
  0.3331498598975606  0.5936191475938155  0.3687339977498326
  0.3328864052234859  0.7197425239979977  0.3689618649610502
  0.3327854111552065  0.8442320582122232  0.3726494632074810
  0.3330263998846217  0.9689149036675393  0.3736232894942018
  0.2080757587298308  0.0314047469788816  0.3730863901312551
  0.2080411909962324  0.1562365544690040  0.3735309459803009
  0.2078727778323761  0.2810962181816548  0.3737304945341983
  0.2078593757667013  0.4060446976576773  0.3710731911431178
  0.2075583535869558  0.5310707646414357  0.3690132495393569
  0.2071578711282257  0.6565853598431008  0.3722698408044170
  0.2078418296486298  0.7816073265926972  0.3735244590960530
  0.2080027214826329  0.9065103793548128  0.3736575424931196
  0.0830568365697352  0.0938637386155059  0.3730150029915557
  0.0830478474906497  0.2186959552889063  0.3734616036397220
  0.0830325871007728  0.3436454030327062  0.3735066522641867
  0.0828982397900476  0.4686844416571475  0.3724324739939742
  0.0829198492756661  0.5938556530205006  0.3723812891617277
  0.0828538946566925  0.7190124954493490  0.3734737252782160
  0.0831119979751897  0.8440344382509125  0.3738936613517568
  0.0830813719359123  0.9689797459906657  0.3733892219414343
  0.9581806783621680  0.0315131641548096  0.3732686306131969
  0.9581482739589678  0.1562521261720576  0.3732340096994588
  0.9580977109422301  0.2812330414183492  0.3738455220555093
  0.9581322463848643  0.4062644811342286  0.3737588222653194
  0.9581594804776049  0.5312964994667911  0.3732618406455889
  0.9581795107872405  0.6564571770146422  0.3730501650255069
  0.9582577386697365  0.7815524642658853  0.3733293251113479
  0.9581744174525380  0.9066211212176656  0.3734376977117940
  0.8331847454463016  0.0939112148369345  0.3731684567826030
  0.8331700324779678  0.2188689207345467  0.3734773438522404
  0.8332366394500367  0.3437622110455493  0.3734749652251574
  0.8333534150385470  0.4686742795171078  0.3723597692549624
  0.8334759668174347  0.5938547633776839  0.3721394122920221
  0.8335239367251047  0.7192043267862690  0.3716003296629924
  0.8333882031331935  0.8442364371770504  0.3727169764254223
  0.8332519581429502  0.9690187132182140  0.3731772108987240
  0.7082502322906866  0.0315624170945138  0.3732279400060272
  0.7081798993790972  0.1564325327746802  0.3731883047778077
  0.7082145420579397  0.2813405120858048  0.3727823147496516
  0.7084895312188757  0.4062076227966639  0.3700652929906039
  0.7088636671200804  0.5307583489738676  0.3702303559986262
  0.7093009235451995  0.6572000569172209  0.3702999017411382
  0.7087043738010975  0.7818037985154622  0.3707839030265730
  0.7082359326391366  0.9066650329767595  0.3729373005720192
  0.5831282610655242  0.0939626556774623  0.3732942785754629
  0.5832371940606743  0.2188604814549102  0.3736346989907349
  0.5834892918655820  0.3435349937786755  0.3711674741780977
  0.5836196751992945  0.4684440056521595  0.3626409789315636
  0.5823924613400827  0.5938209090119516  0.3666363317111037
  0.5833616793055203  0.7187617430909727  0.3711296916001888
  0.5835163353048336  0.8447584871444477  0.3749315931941285
  0.5832157998910225  0.9691136950016628  0.3738068530086267
  0.4581551040138411  0.0314339781054899  0.3736328469970477
  0.4582131792814846  0.1561879190644906  0.3741244243525922
  0.4583076789453762  0.2808553946491378  0.3757108348048607
  0.4579777828530018  0.4065103003314223  0.3725422588978330
  0.4581721977013432  0.5311875653526134  0.3622862363983924
  0.4578512089454952  0.6570515986394307  0.3579653418919506
  0.4569691864229134  0.7816977238709258  0.3708074447249336
  0.4579585821734942  0.9066038423798529  0.3745992010322748
  0.4607935422312127  0.4113756569620142  0.4872601106669680
  0.5178112767488895  0.5930477757094444  0.6078251664167100
  0.6127611991649377  0.5980958537850664  0.4765341978061617
  0.6584695318141124  0.5611859539901970  0.5934215805976335
  0.3577501642293512  0.5909786248088540  0.6049621048721148
  0.3247203342392042  0.6036772152831924  0.4793561309234309
  0.5614763235074658  0.7292935120220271  0.4789940134811552
  0.4591587300572347  0.5445061271904373  0.4858717905574444
  0.4339862028732528  0.6763352442244943  0.5299989144429321
  0.4437126701814903  0.4798041898512166  0.5985737066447832
  0.5450416860517825  0.7196955032036851  0.6037238033938666
  0.5846135293914962  0.4758742605216707  0.5232797427958761

  0.00000000E+00  0.00000000E+00  0.00000000E+00
  0.00000000E+00  0.00000000E+00  0.00000000E+00
  0.00000000E+00  0.00000000E+00  0.00000000E+00
  0.00000000E+00  0.00000000E+00  0.00000000E+00
  0.00000000E+00  0.00000000E+00  0.00000000E+00
  0.00000000E+00  0.00000000E+00  0.00000000E+00
  0.00000000E+00  0.00000000E+00  0.00000000E+00
  0.00000000E+00  0.00000000E+00  0.00000000E+00
  0.00000000E+00  0.00000000E+00  0.00000000E+00
  0.00000000E+00  0.00000000E+00  0.00000000E+00
  0.00000000E+00  0.00000000E+00  0.00000000E+00
  0.00000000E+00  0.00000000E+00  0.00000000E+00
  0.00000000E+00  0.00000000E+00  0.00000000E+00
  0.00000000E+00  0.00000000E+00  0.00000000E+00
  0.00000000E+00  0.00000000E+00  0.00000000E+00
  0.00000000E+00  0.00000000E+00  0.00000000E+00
  0.00000000E+00  0.00000000E+00  0.00000000E+00
  0.00000000E+00  0.00000000E+00  0.00000000E+00
  0.00000000E+00  0.00000000E+00  0.00000000E+00
  0.00000000E+00  0.00000000E+00  0.00000000E+00
  0.00000000E+00  0.00000000E+00  0.00000000E+00
  0.00000000E+00  0.00000000E+00  0.00000000E+00
  0.00000000E+00  0.00000000E+00  0.00000000E+00
  0.00000000E+00  0.00000000E+00  0.00000000E+00
  0.00000000E+00  0.00000000E+00  0.00000000E+00
  0.00000000E+00  0.00000000E+00  0.00000000E+00
  0.00000000E+00  0.00000000E+00  0.00000000E+00
  0.00000000E+00  0.00000000E+00  0.00000000E+00
  0.00000000E+00  0.00000000E+00  0.00000000E+00
  0.00000000E+00  0.00000000E+00  0.00000000E+00
  0.00000000E+00  0.00000000E+00  0.00000000E+00
  0.00000000E+00  0.00000000E+00  0.00000000E+00
  0.00000000E+00  0.00000000E+00  0.00000000E+00
  0.00000000E+00  0.00000000E+00  0.00000000E+00
  0.00000000E+00  0.00000000E+00  0.00000000E+00
  0.00000000E+00  0.00000000E+00  0.00000000E+00
  0.00000000E+00  0.00000000E+00  0.00000000E+00
  0.00000000E+00  0.00000000E+00  0.00000000E+00
  0.00000000E+00  0.00000000E+00  0.00000000E+00
  0.00000000E+00  0.00000000E+00  0.00000000E+00
  0.00000000E+00  0.00000000E+00  0.00000000E+00
  0.00000000E+00  0.00000000E+00  0.00000000E+00
  0.00000000E+00  0.00000000E+00  0.00000000E+00
  0.00000000E+00  0.00000000E+00  0.00000000E+00
  0.00000000E+00  0.00000000E+00  0.00000000E+00
  0.00000000E+00  0.00000000E+00  0.00000000E+00
  0.00000000E+00  0.00000000E+00  0.00000000E+00
  0.00000000E+00  0.00000000E+00  0.00000000E+00
  0.00000000E+00  0.00000000E+00  0.00000000E+00
  0.00000000E+00  0.00000000E+00  0.00000000E+00
  0.00000000E+00  0.00000000E+00  0.00000000E+00
  0.00000000E+00  0.00000000E+00  0.00000000E+00
  0.00000000E+00  0.00000000E+00  0.00000000E+00
  0.00000000E+00  0.00000000E+00  0.00000000E+00
  0.00000000E+00  0.00000000E+00  0.00000000E+00
  0.00000000E+00  0.00000000E+00  0.00000000E+00
  0.00000000E+00  0.00000000E+00  0.00000000E+00
  0.00000000E+00  0.00000000E+00  0.00000000E+00
  0.00000000E+00  0.00000000E+00  0.00000000E+00
  0.00000000E+00  0.00000000E+00  0.00000000E+00
  0.00000000E+00  0.00000000E+00  0.00000000E+00
  0.00000000E+00  0.00000000E+00  0.00000000E+00
  0.00000000E+00  0.00000000E+00  0.00000000E+00
  0.00000000E+00  0.00000000E+00  0.00000000E+00
  0.00000000E+00  0.00000000E+00  0.00000000E+00
  0.00000000E+00  0.00000000E+00  0.00000000E+00
  0.00000000E+00  0.00000000E+00  0.00000000E+00
  0.00000000E+00  0.00000000E+00  0.00000000E+00
  0.00000000E+00  0.00000000E+00  0.00000000E+00
  0.00000000E+00  0.00000000E+00  0.00000000E+00
  0.00000000E+00  0.00000000E+00  0.00000000E+00
  0.00000000E+00  0.00000000E+00  0.00000000E+00
  0.00000000E+00  0.00000000E+00  0.00000000E+00
  0.00000000E+00  0.00000000E+00  0.00000000E+00
  0.00000000E+00  0.00000000E+00  0.00000000E+00
  0.00000000E+00  0.00000000E+00  0.00000000E+00
  0.00000000E+00  0.00000000E+00  0.00000000E+00
  0.00000000E+00  0.00000000E+00  0.00000000E+00
  0.00000000E+00  0.00000000E+00  0.00000000E+00
  0.00000000E+00  0.00000000E+00  0.00000000E+00
  0.00000000E+00  0.00000000E+00  0.00000000E+00
  0.00000000E+00  0.00000000E+00  0.00000000E+00
  0.00000000E+00  0.00000000E+00  0.00000000E+00
  0.00000000E+00  0.00000000E+00  0.00000000E+00
  0.00000000E+00  0.00000000E+00  0.00000000E+00
  0.00000000E+00  0.00000000E+00  0.00000000E+00
  0.00000000E+00  0.00000000E+00  0.00000000E+00
  0.00000000E+00  0.00000000E+00  0.00000000E+00
  0.00000000E+00  0.00000000E+00  0.00000000E+00
  0.00000000E+00  0.00000000E+00  0.00000000E+00
  0.00000000E+00  0.00000000E+00  0.00000000E+00
  0.00000000E+00  0.00000000E+00  0.00000000E+00
  0.00000000E+00  0.00000000E+00  0.00000000E+00
  0.00000000E+00  0.00000000E+00  0.00000000E+00
  0.00000000E+00  0.00000000E+00  0.00000000E+00
  0.00000000E+00  0.00000000E+00  0.00000000E+00
  0.00000000E+00  0.00000000E+00  0.00000000E+00
  0.00000000E+00  0.00000000E+00  0.00000000E+00
  0.00000000E+00  0.00000000E+00  0.00000000E+00
  0.00000000E+00  0.00000000E+00  0.00000000E+00
  0.00000000E+00  0.00000000E+00  0.00000000E+00
  0.00000000E+00  0.00000000E+00  0.00000000E+00
  0.00000000E+00  0.00000000E+00  0.00000000E+00
  0.00000000E+00  0.00000000E+00  0.00000000E+00
  0.00000000E+00  0.00000000E+00  0.00000000E+00
  0.00000000E+00  0.00000000E+00  0.00000000E+00
  0.00000000E+00  0.00000000E+00  0.00000000E+00
  0.00000000E+00  0.00000000E+00  0.00000000E+00
  0.00000000E+00  0.00000000E+00  0.00000000E+00
  0.00000000E+00  0.00000000E+00  0.00000000E+00
  0.00000000E+00  0.00000000E+00  0.00000000E+00
  0.00000000E+00  0.00000000E+00  0.00000000E+00
  0.00000000E+00  0.00000000E+00  0.00000000E+00
  0.00000000E+00  0.00000000E+00  0.00000000E+00
  0.00000000E+00  0.00000000E+00  0.00000000E+00
  0.00000000E+00  0.00000000E+00  0.00000000E+00
  0.00000000E+00  0.00000000E+00  0.00000000E+00
  0.00000000E+00  0.00000000E+00  0.00000000E+00
  0.00000000E+00  0.00000000E+00  0.00000000E+00
  0.00000000E+00  0.00000000E+00  0.00000000E+00
  0.00000000E+00  0.00000000E+00  0.00000000E+00
  0.00000000E+00  0.00000000E+00  0.00000000E+00
  0.00000000E+00  0.00000000E+00  0.00000000E+00
  0.00000000E+00  0.00000000E+00  0.00000000E+00
  0.00000000E+00  0.00000000E+00  0.00000000E+00
  0.00000000E+00  0.00000000E+00  0.00000000E+00
  0.00000000E+00  0.00000000E+00  0.00000000E+00
  0.00000000E+00  0.00000000E+00  0.00000000E+00
  0.00000000E+00  0.00000000E+00  0.00000000E+00
  0.00000000E+00  0.00000000E+00  0.00000000E+00
  0.00000000E+00  0.00000000E+00  0.00000000E+00
  0.00000000E+00  0.00000000E+00  0.00000000E+00
  0.00000000E+00  0.00000000E+00  0.00000000E+00
  0.00000000E+00  0.00000000E+00  0.00000000E+00
  0.00000000E+00  0.00000000E+00  0.00000000E+00
  0.00000000E+00  0.00000000E+00  0.00000000E+00
  0.00000000E+00  0.00000000E+00  0.00000000E+00
  0.00000000E+00  0.00000000E+00  0.00000000E+00
  0.00000000E+00  0.00000000E+00  0.00000000E+00
  0.00000000E+00  0.00000000E+00  0.00000000E+00
