 C Pt                                   
   1.0000000000000000     
    17.0979999999999990    0.0000000000000000    0.0000000000000000
     0.0000000000000000   19.7420000000000009    0.0000000000000000
     0.0000000000000000    0.0000000000000000   20.0000000000000000
   C    Pt
   128    12
Direct
  0.4169678402342122  0.0935788908200533  0.3331074279521367
  0.4169558140938893  0.2183058278854995  0.3323006477969089
  0.4164547386386899  0.3426489391957783  0.3341966368673731
  0.4168895614010642  0.4693975202190643  0.3311170814785007
  0.4165478787563213  0.5941054704887679  0.3285581431240371
  0.4163277965458496  0.7190905749949702  0.3339130328177379
  0.4167742600790456  0.8438642430565242  0.3342470296203936
  0.4168568792200241  0.9686686797189799  0.3340225262627760
  0.2918925808520355  0.0311170930776597  0.3333732664422993
  0.2919590720647671  0.1558896425661717  0.3322542383816150
  0.2919156895741374  0.2808074457431398  0.3309287285303593
  0.2915486284877697  0.4057807485454536  0.3305590336936370
  0.2913945662468973  0.5312862753820030  0.3302935307991225
  0.2915617832928823  0.6563056282685388  0.3325951892680352
  0.2917455024363759  0.7812067838376425  0.3337212282813716
  0.2918905289407469  0.9061684856131277  0.3335133234665997
  0.1669664464767731  0.0934541231452851  0.3330255305980692
  0.1669835869559843  0.2183696842876058  0.3324763148769654
  0.1669755262410819  0.3433262912505743  0.3316572567410965
  0.1669710676779826  0.4684283841762260  0.3318686780341960
  0.1668394077438112  0.5937072433637370  0.3331425711893236
  0.1668987080580714  0.7186075928199285  0.3342889954897645
  0.1669399022407007  0.8435619530939048  0.3335376637040972
  0.1668884888387256  0.9685495417634733  0.3330081559397114
  0.0419138729867622  0.0308874675525043  0.3335454782340516
  0.0419341100473924  0.1558034074262947  0.3333970564775972
  0.0421027584867294  0.2808339256991727  0.3331772462131566
  0.0422516412169523  0.4057610389812362  0.3330763488087050
  0.0420489796337206  0.5309810590281235  0.3337039528921499
  0.0420765459007621  0.6560629274651973  0.3337469315105174
  0.0419756087765914  0.7809601874048254  0.3333502907492446
  0.0419428780002683  0.9060063220367534  0.3329755396760404
  0.9170085262549146  0.0933527431302603  0.3334296638283495
  0.9171020323871142  0.2183518215468171  0.3330597461177899
  0.9172780769207693  0.3432214018988893  0.3325755456695105
  0.9173521991717678  0.4682537871820454  0.3335038261438263
  0.9172307472532844  0.5935693419271876  0.3334670978290748
  0.9171266344379143  0.7184710589969834  0.3322957859094215
  0.9170215013221851  0.8434883441692321  0.3325822501043424
  0.9169399696320767  0.9683874283475160  0.3336531383973200
  0.7920100001457522  0.0308939468124067  0.3334833225205716
  0.7920074964171502  0.1558668055185822  0.3328875018333907
  0.7922470438393716  0.2807091271364260  0.3304544510321688
  0.7926929993847950  0.4055942680184891  0.3290964586521130
  0.7927999160969381  0.5310107145869942  0.3332958777022598
  0.7924103227391629  0.6560844009999111  0.3321903691972749
  0.7921113080233618  0.7810766644776228  0.3326203440090216
  0.7919342389622903  0.9059297295013871  0.3333928894842487
  0.6670222894590647  0.0934599645445067  0.3332836420074445
  0.6670396329931289  0.2183641880941339  0.3315757759027908
  0.6674141725481145  0.3428502779715633  0.3276480506483349
  0.6683584987491600  0.4678961018764304  0.3264692040672809
  0.6671804768367714  0.5938950573707381  0.3291001961583517
  0.6680020220750038  0.7187413771759118  0.3371941174806003
  0.6668512320544030  0.8436032328068086  0.3354397835054411
  0.6668457533670880  0.9684365788992259  0.3337287586377553
  0.5419400514104535  0.0310864013495960  0.3335069113038343
  0.5420078736209993  0.1559679619037184  0.3328842503228275
  0.5422499812450363  0.2807726741736682  0.3323975067873042
  0.5431557569286508  0.4056243281657802  0.3376415459960938
  0.5419233694097878  0.5320833794153275  0.3245288762538834
  0.5418060626542912  0.6557530927201347  0.3379396744262645
  0.5414297008977121  0.7820087020496884  0.3391816586318685
  0.5418152445559208  0.9062179116043191  0.3346691827363956
  0.3336068404854365  0.0935686578368920  0.3329836584209365
  0.3336594906791953  0.2183832126070785  0.3316786472963830
  0.3333226488548377  0.3431227264734057  0.3311205596736606
  0.3329716562847119  0.4686330200058780  0.3307650334199537
  0.3329167398428908  0.5938656723680310  0.3303414550436791
  0.3332922319634509  0.7188123719821100  0.3331606675027916
  0.3334685777876739  0.8437230455774557  0.3336092105014787
  0.3335683403623858  0.9686788678236935  0.3337583450585690
  0.2085584534263126  0.0310582485218206  0.3330453065896244
  0.2086392689369402  0.1558407384906021  0.3325552935127105
  0.2085665940552719  0.2808963144575886  0.3315546346417652
  0.2086300846530197  0.4059004565008093  0.3308593656657396
  0.2083257991143008  0.5310823888672724  0.3317204871982720
  0.2083902814704059  0.6561821710603812  0.3336201963741722
  0.2086013751519456  0.7810760064350143  0.3340099144167322
  0.2086232237187812  0.9061367002731414  0.3332801062800876
  0.0835855136501417  0.0933436021036815  0.3334522546664473
  0.0836377034788470  0.2183004176323217  0.3330134334947638
  0.0838184440860309  0.3433005678615284  0.3327410209584726
  0.0838478122615151  0.4683485646213209  0.3331681980563555
  0.0836472417509014  0.5935905026713120  0.3337257405891623
  0.0836990689952524  0.7185218834591796  0.3340821903350625
  0.0835891427435814  0.8434970338958847  0.3331702694416364
  0.0835824622591320  0.9684931823846090  0.3330985263565320
  0.9585960034649278  0.0309191951986296  0.3336918038776289
  0.9586599241066469  0.1557941770541252  0.3333251961225921
  0.9587865295017570  0.2807938183353153  0.3332491522281964
  0.9590741881443253  0.4056954906457144  0.3330526630367096
  0.9588647729357008  0.5308976523653068  0.3338384220979962
  0.9588916035715093  0.6561390555015866  0.3330475660109774
  0.9587096513971719  0.7809693793605234  0.3325305267043967
  0.9586141810238582  0.9059532201935511  0.3331799115325466
  0.8336600973793032  0.0933979363456788  0.3332762053892699
  0.8337612974908567  0.2183916186907067  0.3323828401312455
  0.8341110933679881  0.3431051522341181  0.3305450018173695
  0.8342304889119786  0.4680608228163028  0.3323815261725841
  0.8342452385660389  0.5938045451101405  0.3330623786308227
  0.8338375795382382  0.7186101248580493  0.3321545693749261
  0.8336691154102890  0.8435356574117501  0.3326497456942023
  0.8336124961218685  0.9683604544929459  0.3335862914150899
  0.7085644875429697  0.0309621625082269  0.3333518870320790
  0.7086785986446080  0.1559559630937708  0.3328981058709449
  0.7089684012552702  0.2806396097983719  0.3292416271792998
  0.7094584849141309  0.4054288173470385  0.3263070611826419
  0.7093433202188049  0.5311125408650641  0.3296006718441581
  0.7089719545708287  0.6562828783556343  0.3326491736417458
  0.7088745830147357  0.7811558171778900  0.3350195239493192
  0.7084681256049671  0.9059053456460123  0.3340622654138237
  0.5836239102703366  0.0935893354246836  0.3333257859727264
  0.5837464502359720  0.2184105730629653  0.3319835373807603
  0.5844633924225578  0.3426823724599167  0.3319609912143844
  0.5843286956526329  0.4690698578501695  0.3306916581051131
  0.5841915322661125  0.5936593318809680  0.3278548381099857
  0.5839578161557274  0.7191659422717944  0.3436223967206867
  0.5834348871180989  0.8438611922030286  0.3365978736009023
  0.5835646633022478  0.9686224070181483  0.3337331824997327
  0.4585707266115371  0.0311393543129793  0.3336066966529723
  0.4586653749994907  0.1559556655161240  0.3327449560621304
  0.4585237877753764  0.2807860186436587  0.3331952987716680
  0.4581471027419527  0.4058678649088663  0.3388462198402713
  0.4591663593679177  0.5320226905865473  0.3246296741998986
  0.4574933630740205  0.6566476777457141  0.3328180221078317
  0.4584068610237482  0.7815817740753943  0.3357371700964967
  0.4584946332332272  0.9062700514758280  0.3344289259128536
  0.6561360988659625  0.4791342216690412  0.5618713378672050
  0.6342106336105170  0.5987557110512219  0.5183847307820801
  0.4274055302807867  0.4501740100867319  0.4415251232115774
  0.5074345958595581  0.5613891128228943  0.5807164184579701
  0.5047061695530388  0.4367407391115027  0.5550519280829840
  0.5806290479227936  0.4595295528787572  0.4406625604292079
  0.5549248826660814  0.6819450928919492  0.4466648654665134
  0.7150164447912954  0.5192618054517811  0.4501992690031720
  0.5468271859948841  0.6859414102626348  0.5739603861256574
  0.3714698483570629  0.5050438962644495  0.5490154250340360
  0.4470430753123158  0.5888279644590488  0.4688810846191740
  0.5694273884491283  0.4734338453339278  0.6645735466114508

  0.00000000E+00  0.00000000E+00  0.00000000E+00
  0.00000000E+00  0.00000000E+00  0.00000000E+00
  0.00000000E+00  0.00000000E+00  0.00000000E+00
  0.00000000E+00  0.00000000E+00  0.00000000E+00
  0.00000000E+00  0.00000000E+00  0.00000000E+00
  0.00000000E+00  0.00000000E+00  0.00000000E+00
  0.00000000E+00  0.00000000E+00  0.00000000E+00
  0.00000000E+00  0.00000000E+00  0.00000000E+00
  0.00000000E+00  0.00000000E+00  0.00000000E+00
  0.00000000E+00  0.00000000E+00  0.00000000E+00
  0.00000000E+00  0.00000000E+00  0.00000000E+00
  0.00000000E+00  0.00000000E+00  0.00000000E+00
  0.00000000E+00  0.00000000E+00  0.00000000E+00
  0.00000000E+00  0.00000000E+00  0.00000000E+00
  0.00000000E+00  0.00000000E+00  0.00000000E+00
  0.00000000E+00  0.00000000E+00  0.00000000E+00
  0.00000000E+00  0.00000000E+00  0.00000000E+00
  0.00000000E+00  0.00000000E+00  0.00000000E+00
  0.00000000E+00  0.00000000E+00  0.00000000E+00
  0.00000000E+00  0.00000000E+00  0.00000000E+00
  0.00000000E+00  0.00000000E+00  0.00000000E+00
  0.00000000E+00  0.00000000E+00  0.00000000E+00
  0.00000000E+00  0.00000000E+00  0.00000000E+00
  0.00000000E+00  0.00000000E+00  0.00000000E+00
  0.00000000E+00  0.00000000E+00  0.00000000E+00
  0.00000000E+00  0.00000000E+00  0.00000000E+00
  0.00000000E+00  0.00000000E+00  0.00000000E+00
  0.00000000E+00  0.00000000E+00  0.00000000E+00
  0.00000000E+00  0.00000000E+00  0.00000000E+00
  0.00000000E+00  0.00000000E+00  0.00000000E+00
  0.00000000E+00  0.00000000E+00  0.00000000E+00
  0.00000000E+00  0.00000000E+00  0.00000000E+00
  0.00000000E+00  0.00000000E+00  0.00000000E+00
  0.00000000E+00  0.00000000E+00  0.00000000E+00
  0.00000000E+00  0.00000000E+00  0.00000000E+00
  0.00000000E+00  0.00000000E+00  0.00000000E+00
  0.00000000E+00  0.00000000E+00  0.00000000E+00
  0.00000000E+00  0.00000000E+00  0.00000000E+00
  0.00000000E+00  0.00000000E+00  0.00000000E+00
  0.00000000E+00  0.00000000E+00  0.00000000E+00
  0.00000000E+00  0.00000000E+00  0.00000000E+00
  0.00000000E+00  0.00000000E+00  0.00000000E+00
  0.00000000E+00  0.00000000E+00  0.00000000E+00
  0.00000000E+00  0.00000000E+00  0.00000000E+00
  0.00000000E+00  0.00000000E+00  0.00000000E+00
  0.00000000E+00  0.00000000E+00  0.00000000E+00
  0.00000000E+00  0.00000000E+00  0.00000000E+00
  0.00000000E+00  0.00000000E+00  0.00000000E+00
  0.00000000E+00  0.00000000E+00  0.00000000E+00
  0.00000000E+00  0.00000000E+00  0.00000000E+00
  0.00000000E+00  0.00000000E+00  0.00000000E+00
  0.00000000E+00  0.00000000E+00  0.00000000E+00
  0.00000000E+00  0.00000000E+00  0.00000000E+00
  0.00000000E+00  0.00000000E+00  0.00000000E+00
  0.00000000E+00  0.00000000E+00  0.00000000E+00
  0.00000000E+00  0.00000000E+00  0.00000000E+00
  0.00000000E+00  0.00000000E+00  0.00000000E+00
  0.00000000E+00  0.00000000E+00  0.00000000E+00
  0.00000000E+00  0.00000000E+00  0.00000000E+00
  0.00000000E+00  0.00000000E+00  0.00000000E+00
  0.00000000E+00  0.00000000E+00  0.00000000E+00
  0.00000000E+00  0.00000000E+00  0.00000000E+00
  0.00000000E+00  0.00000000E+00  0.00000000E+00
  0.00000000E+00  0.00000000E+00  0.00000000E+00
  0.00000000E+00  0.00000000E+00  0.00000000E+00
  0.00000000E+00  0.00000000E+00  0.00000000E+00
  0.00000000E+00  0.00000000E+00  0.00000000E+00
  0.00000000E+00  0.00000000E+00  0.00000000E+00
  0.00000000E+00  0.00000000E+00  0.00000000E+00
  0.00000000E+00  0.00000000E+00  0.00000000E+00
  0.00000000E+00  0.00000000E+00  0.00000000E+00
  0.00000000E+00  0.00000000E+00  0.00000000E+00
  0.00000000E+00  0.00000000E+00  0.00000000E+00
  0.00000000E+00  0.00000000E+00  0.00000000E+00
  0.00000000E+00  0.00000000E+00  0.00000000E+00
  0.00000000E+00  0.00000000E+00  0.00000000E+00
  0.00000000E+00  0.00000000E+00  0.00000000E+00
  0.00000000E+00  0.00000000E+00  0.00000000E+00
  0.00000000E+00  0.00000000E+00  0.00000000E+00
  0.00000000E+00  0.00000000E+00  0.00000000E+00
  0.00000000E+00  0.00000000E+00  0.00000000E+00
  0.00000000E+00  0.00000000E+00  0.00000000E+00
  0.00000000E+00  0.00000000E+00  0.00000000E+00
  0.00000000E+00  0.00000000E+00  0.00000000E+00
  0.00000000E+00  0.00000000E+00  0.00000000E+00
  0.00000000E+00  0.00000000E+00  0.00000000E+00
  0.00000000E+00  0.00000000E+00  0.00000000E+00
  0.00000000E+00  0.00000000E+00  0.00000000E+00
  0.00000000E+00  0.00000000E+00  0.00000000E+00
  0.00000000E+00  0.00000000E+00  0.00000000E+00
  0.00000000E+00  0.00000000E+00  0.00000000E+00
  0.00000000E+00  0.00000000E+00  0.00000000E+00
  0.00000000E+00  0.00000000E+00  0.00000000E+00
  0.00000000E+00  0.00000000E+00  0.00000000E+00
  0.00000000E+00  0.00000000E+00  0.00000000E+00
  0.00000000E+00  0.00000000E+00  0.00000000E+00
  0.00000000E+00  0.00000000E+00  0.00000000E+00
  0.00000000E+00  0.00000000E+00  0.00000000E+00
  0.00000000E+00  0.00000000E+00  0.00000000E+00
  0.00000000E+00  0.00000000E+00  0.00000000E+00
  0.00000000E+00  0.00000000E+00  0.00000000E+00
  0.00000000E+00  0.00000000E+00  0.00000000E+00
  0.00000000E+00  0.00000000E+00  0.00000000E+00
  0.00000000E+00  0.00000000E+00  0.00000000E+00
  0.00000000E+00  0.00000000E+00  0.00000000E+00
  0.00000000E+00  0.00000000E+00  0.00000000E+00
  0.00000000E+00  0.00000000E+00  0.00000000E+00
  0.00000000E+00  0.00000000E+00  0.00000000E+00
  0.00000000E+00  0.00000000E+00  0.00000000E+00
  0.00000000E+00  0.00000000E+00  0.00000000E+00
  0.00000000E+00  0.00000000E+00  0.00000000E+00
  0.00000000E+00  0.00000000E+00  0.00000000E+00
  0.00000000E+00  0.00000000E+00  0.00000000E+00
  0.00000000E+00  0.00000000E+00  0.00000000E+00
  0.00000000E+00  0.00000000E+00  0.00000000E+00
  0.00000000E+00  0.00000000E+00  0.00000000E+00
  0.00000000E+00  0.00000000E+00  0.00000000E+00
  0.00000000E+00  0.00000000E+00  0.00000000E+00
  0.00000000E+00  0.00000000E+00  0.00000000E+00
  0.00000000E+00  0.00000000E+00  0.00000000E+00
  0.00000000E+00  0.00000000E+00  0.00000000E+00
  0.00000000E+00  0.00000000E+00  0.00000000E+00
  0.00000000E+00  0.00000000E+00  0.00000000E+00
  0.00000000E+00  0.00000000E+00  0.00000000E+00
  0.00000000E+00  0.00000000E+00  0.00000000E+00
  0.00000000E+00  0.00000000E+00  0.00000000E+00
  0.00000000E+00  0.00000000E+00  0.00000000E+00
  0.00000000E+00  0.00000000E+00  0.00000000E+00
  0.00000000E+00  0.00000000E+00  0.00000000E+00
  0.00000000E+00  0.00000000E+00  0.00000000E+00
  0.00000000E+00  0.00000000E+00  0.00000000E+00
  0.00000000E+00  0.00000000E+00  0.00000000E+00
  0.00000000E+00  0.00000000E+00  0.00000000E+00
  0.00000000E+00  0.00000000E+00  0.00000000E+00
  0.00000000E+00  0.00000000E+00  0.00000000E+00
  0.00000000E+00  0.00000000E+00  0.00000000E+00
  0.00000000E+00  0.00000000E+00  0.00000000E+00
  0.00000000E+00  0.00000000E+00  0.00000000E+00
  0.00000000E+00  0.00000000E+00  0.00000000E+00
  0.00000000E+00  0.00000000E+00  0.00000000E+00
