 C Pt                                   
   1.0000000000000000     
    17.0979999999999990    0.0000000000000000    0.0000000000000000
     0.0000000000000000   19.7420000000000009    0.0000000000000000
     0.0000000000000000    0.0000000000000000   20.0000000000000000
   C    Pt
   128    12
Direct
  0.2912962477641434  0.8437587380354624  0.3443525403279122
  0.2912685106425623  0.9684882584550938  0.3451324649974386
  0.2913655346325645  0.0933611056518218  0.3444487621332710
  0.2912094430078190  0.2182168604836890  0.3433240265644990
  0.2909242385017817  0.3432702628798978  0.3435166570671035
  0.2904346581103754  0.4684629620047880  0.3442896903820409
  0.2903344121289517  0.5939179057210457  0.3425334549037107
  0.2909377266829246  0.7188684440050522  0.3425394808398391
  0.1661098075392251  0.7812171847613421  0.3443915444426314
  0.1663974451139327  0.9060955677665214  0.3450923483248119
  0.1663785987515364  0.0309654659872611  0.3447938678979766
  0.1663615159830409  0.1558310480811261  0.3439600184070720
  0.1662761449132898  0.2808310548127289  0.3435589846127878
  0.1661168460072180  0.4059439811583006  0.3441461448236663
  0.1659473186036558  0.5310852402430170  0.3440680837126620
  0.1659431254515510  0.6562930813046797  0.3435067845884738
  0.0412879233266173  0.8436666829402850  0.3452301778892954
  0.0414002978517687  0.9685270897442667  0.3449551838553273
  0.0414955650772441  0.0934289204120743  0.3445678342747305
  0.0415291495014693  0.2183756740541962  0.3444508478786129
  0.0414599870526687  0.3433159904962187  0.3445102128933267
  0.0412526333383850  0.4685077966338514  0.3448923442581751
  0.0412396796314863  0.5936943993901330  0.3448976114075495
  0.0412366519507606  0.7187245176145606  0.3450561439604038
  0.9163746614200786  0.7811821242336953  0.3450978757053453
  0.9163439578911682  0.9060909065115150  0.3449610375701628
  0.9164849683062118  0.0309828118639014  0.3447706558800585
  0.9165743449339463  0.1559220400518128  0.3446403346842289
  0.9166588868696921  0.2808618836381406  0.3446285739124583
  0.9166853631575015  0.4058811011281538  0.3446533331010963
  0.9164566212675483  0.5311750014274368  0.3446018533745147
  0.9164457671153736  0.6562289703403108  0.3448393553964104
  0.7913557388711822  0.8437102658535093  0.3443496932597410
  0.7914086135778434  0.9684736978212499  0.3448574583278657
  0.7915580473919608  0.0934533672064299  0.3446611958123486
  0.7917788210065096  0.2183822458516754  0.3444893912883304
  0.7919464703650406  0.3432928146528446  0.3446419995370301
  0.7922717953932297  0.4683684542703339  0.3446548656436781
  0.7920975603596255  0.5937698674447859  0.3456495067703067
  0.7914801739429622  0.7187799417965752  0.3444286900051981
  0.6663900925792042  0.7812584757096750  0.3431496131879994
  0.6663649150213495  0.9061722083853353  0.3444336246353644
  0.6664549061769137  0.0309962788683357  0.3448808892666287
  0.6665140343489192  0.1558555508572930  0.3444157625182652
  0.6668924771676444  0.2806858835510191  0.3453315295266171
  0.6678140161965999  0.4055149766019026  0.3488097061800781
  0.6661969281892441  0.5309900536003826  0.3498294342084196
  0.6664402505437246  0.6566975307493386  0.3436232052607621
  0.5413244977700143  0.8437432546854874  0.3440146829499569
  0.5413692744564322  0.9685311404553093  0.3449144483411993
  0.5414556678677854  0.0934126645543503  0.3445450915251569
  0.5414974682709883  0.2181592345724831  0.3447550115004321
  0.5419219337851950  0.3424134716748328  0.3487707019224650
  0.5405558214575183  0.4693015207559617  0.3426884517080925
  0.5418614424619504  0.5939398003135556  0.3400365957218314
  0.5412801073527947  0.7188057820236108  0.3424280460052184
  0.4161500058071636  0.7814084083296784  0.3437077587494967
  0.4163467563957858  0.9061847418216533  0.3445960333056206
  0.4163536921998565  0.0309558554149497  0.3448901679856396
  0.4163597600171933  0.1556083719476296  0.3444013574667590
  0.4158798585701715  0.2799191316796297  0.3456086397762689
  0.4160037341220244  0.4061588225916056  0.3466550868160610
  0.4157168562341703  0.5309339899711990  0.3448250735515200
  0.4154802413027140  0.6571149209486986  0.3438108654496428
  0.2078670979720726  0.8437491305415884  0.3446581755845435
  0.2080792282784255  0.9685488537551761  0.3451231754514710
  0.2080641544895398  0.0933878954811100  0.3443764072284121
  0.2078900196882034  0.2183145435787706  0.3434105376313702
  0.2077488606069769  0.3433219805708403  0.3434804943940918
  0.2074124510818588  0.4684686457215592  0.3441886005817969
  0.2073692629511325  0.5937134967728731  0.3431244853624377
  0.2074584205749471  0.7188169104794330  0.3433114947953857
  0.0828261480948636  0.7811647321152846  0.3450427514960482
  0.0829580177966115  0.9060787968770678  0.3451321973304056
  0.0830644212983703  0.0309899863878976  0.3447205766137282
  0.0830359396866293  0.1559270017957775  0.3443391152978106
  0.0830113046905493  0.2808540055976553  0.3441581855588187
  0.0829352479044482  0.4058785091170905  0.3445149181675100
  0.0827184889763275  0.5311635208152736  0.3447074055074552
  0.0827481028625475  0.6562258075384227  0.3445950939724876
  0.9579663261156883  0.8436400250407020  0.3451636047698072
  0.9580241285741996  0.9685377559758623  0.3449277218825718
  0.9580898586184914  0.0934807173433789  0.3446383067308439
  0.9582097313531024  0.2184091383195627  0.3446691072889683
  0.9582284419358704  0.3433882567163004  0.3447277992560725
  0.9581009359547737  0.4684748777889195  0.3448289864460186
  0.9581052658320994  0.5936954943627124  0.3449554134960741
  0.9579543871919249  0.7186724700607938  0.3451157788546967
  0.8330780490784074  0.7811546860258164  0.3446153629199058
  0.8330676526908884  0.9061492640930343  0.3447293869811928
  0.8330765830615458  0.0310539856761008  0.3448239520393369
  0.8332021013144985  0.1559458015790363  0.3445606161977305
  0.8333690761936198  0.2808412460504768  0.3444474704446083
  0.8335668125898807  0.4058364627513682  0.3444666889339449
  0.8335216970918806  0.5311992400232574  0.3445010866757186
  0.8332739631932224  0.6561913183994800  0.3447755058130187
  0.7080710623559558  0.8436610732886876  0.3438647507357812
  0.7080900105325648  0.9686054991169347  0.3448598293788993
  0.7081313203211643  0.0934430623381861  0.3446370658167069
  0.7082581983024401  0.2184411228090648  0.3444967415778206
  0.7087831391714251  0.3431322096746016  0.3458955395842319
  0.7094069071505046  0.4679719271223945  0.3470115537781513
  0.7084057171825986  0.5941705400380742  0.3481441433054346
  0.7081002095022644  0.7188331827417961  0.3434322903429229
  0.5829981934496451  0.7811500075966750  0.3432290742064568
  0.5830818246302577  0.9060823274616331  0.3445250903487628
  0.5831458262677827  0.0309319993895153  0.3448452323201827
  0.5831583789551164  0.1558283742472719  0.3443481051678219
  0.5834011028166546  0.2805324022550729  0.3460094182727429
  0.5832780630960555  0.4063994637141021  0.3545564838064659
  0.5821075083250379  0.5315748556056288  0.3407384654619388
  0.5832089120856889  0.6564663645249763  0.3412146561533432
  0.4579522188473337  0.8437451443548655  0.3440953365818868
  0.4580743566018529  0.9685246558081997  0.3448984918318878
  0.4580575810999507  0.0931923606552244  0.3445958810533605
  0.4581134967843212  0.2178526784669453  0.3450104806771113
  0.4582275810410361  0.3426269145432003  0.3482443287706219
  0.4581588600510639  0.4684976601386164  0.3404525867428104
  0.4579895468425259  0.5941704119734068  0.3451629252575402
  0.4577475518575007  0.7191245462419137  0.3431937218654462
  0.3328662269394550  0.7813898185609955  0.3435931421414509
  0.3329721544836414  0.9061654553708341  0.3447766420582331
  0.3331067653376174  0.0309285611318043  0.3449477586799954
  0.3330495575779361  0.1557394677913314  0.3440004867650067
  0.3325434543138168  0.2805073386791381  0.3435400108861674
  0.3321032010741670  0.4058957614316370  0.3449297364091607
  0.3315366622931808  0.5312082899744547  0.3440416991649873
  0.3320856261815622  0.6567099525063258  0.3420405406778609
  0.5078253180550805  0.3738256344324465  0.5732191964229723
  0.5528449880777760  0.6060255430018954  0.5070513406466828
  0.5801146863813902  0.4236873837096373  0.4638765010376198
  0.6702039412612266  0.5373516056829110  0.4607222400817370
  0.5388988115431187  0.5044623792108007  0.5858087572075634
  0.6736339397479799  0.4500021367047507  0.5668257606733413
  0.4236653094948378  0.5712084218572175  0.4510814219683930
  0.4423116634701582  0.3693042475768790  0.4575708281005363
  0.4084514902264196  0.4676562509689677  0.5328011682806361
  0.4237706593998844  0.5905457103962978  0.5791085887575483
  0.6671671376125244  0.5788748844533986  0.5866450360926043
  0.6362266642859413  0.3452898148807685  0.6253459159334471

  0.00000000E+00  0.00000000E+00  0.00000000E+00
  0.00000000E+00  0.00000000E+00  0.00000000E+00
  0.00000000E+00  0.00000000E+00  0.00000000E+00
  0.00000000E+00  0.00000000E+00  0.00000000E+00
  0.00000000E+00  0.00000000E+00  0.00000000E+00
  0.00000000E+00  0.00000000E+00  0.00000000E+00
  0.00000000E+00  0.00000000E+00  0.00000000E+00
  0.00000000E+00  0.00000000E+00  0.00000000E+00
  0.00000000E+00  0.00000000E+00  0.00000000E+00
  0.00000000E+00  0.00000000E+00  0.00000000E+00
  0.00000000E+00  0.00000000E+00  0.00000000E+00
  0.00000000E+00  0.00000000E+00  0.00000000E+00
  0.00000000E+00  0.00000000E+00  0.00000000E+00
  0.00000000E+00  0.00000000E+00  0.00000000E+00
  0.00000000E+00  0.00000000E+00  0.00000000E+00
  0.00000000E+00  0.00000000E+00  0.00000000E+00
  0.00000000E+00  0.00000000E+00  0.00000000E+00
  0.00000000E+00  0.00000000E+00  0.00000000E+00
  0.00000000E+00  0.00000000E+00  0.00000000E+00
  0.00000000E+00  0.00000000E+00  0.00000000E+00
  0.00000000E+00  0.00000000E+00  0.00000000E+00
  0.00000000E+00  0.00000000E+00  0.00000000E+00
  0.00000000E+00  0.00000000E+00  0.00000000E+00
  0.00000000E+00  0.00000000E+00  0.00000000E+00
  0.00000000E+00  0.00000000E+00  0.00000000E+00
  0.00000000E+00  0.00000000E+00  0.00000000E+00
  0.00000000E+00  0.00000000E+00  0.00000000E+00
  0.00000000E+00  0.00000000E+00  0.00000000E+00
  0.00000000E+00  0.00000000E+00  0.00000000E+00
  0.00000000E+00  0.00000000E+00  0.00000000E+00
  0.00000000E+00  0.00000000E+00  0.00000000E+00
  0.00000000E+00  0.00000000E+00  0.00000000E+00
  0.00000000E+00  0.00000000E+00  0.00000000E+00
  0.00000000E+00  0.00000000E+00  0.00000000E+00
  0.00000000E+00  0.00000000E+00  0.00000000E+00
  0.00000000E+00  0.00000000E+00  0.00000000E+00
  0.00000000E+00  0.00000000E+00  0.00000000E+00
  0.00000000E+00  0.00000000E+00  0.00000000E+00
  0.00000000E+00  0.00000000E+00  0.00000000E+00
  0.00000000E+00  0.00000000E+00  0.00000000E+00
  0.00000000E+00  0.00000000E+00  0.00000000E+00
  0.00000000E+00  0.00000000E+00  0.00000000E+00
  0.00000000E+00  0.00000000E+00  0.00000000E+00
  0.00000000E+00  0.00000000E+00  0.00000000E+00
  0.00000000E+00  0.00000000E+00  0.00000000E+00
  0.00000000E+00  0.00000000E+00  0.00000000E+00
  0.00000000E+00  0.00000000E+00  0.00000000E+00
  0.00000000E+00  0.00000000E+00  0.00000000E+00
  0.00000000E+00  0.00000000E+00  0.00000000E+00
  0.00000000E+00  0.00000000E+00  0.00000000E+00
  0.00000000E+00  0.00000000E+00  0.00000000E+00
  0.00000000E+00  0.00000000E+00  0.00000000E+00
  0.00000000E+00  0.00000000E+00  0.00000000E+00
  0.00000000E+00  0.00000000E+00  0.00000000E+00
  0.00000000E+00  0.00000000E+00  0.00000000E+00
  0.00000000E+00  0.00000000E+00  0.00000000E+00
  0.00000000E+00  0.00000000E+00  0.00000000E+00
  0.00000000E+00  0.00000000E+00  0.00000000E+00
  0.00000000E+00  0.00000000E+00  0.00000000E+00
  0.00000000E+00  0.00000000E+00  0.00000000E+00
  0.00000000E+00  0.00000000E+00  0.00000000E+00
  0.00000000E+00  0.00000000E+00  0.00000000E+00
  0.00000000E+00  0.00000000E+00  0.00000000E+00
  0.00000000E+00  0.00000000E+00  0.00000000E+00
  0.00000000E+00  0.00000000E+00  0.00000000E+00
  0.00000000E+00  0.00000000E+00  0.00000000E+00
  0.00000000E+00  0.00000000E+00  0.00000000E+00
  0.00000000E+00  0.00000000E+00  0.00000000E+00
  0.00000000E+00  0.00000000E+00  0.00000000E+00
  0.00000000E+00  0.00000000E+00  0.00000000E+00
  0.00000000E+00  0.00000000E+00  0.00000000E+00
  0.00000000E+00  0.00000000E+00  0.00000000E+00
  0.00000000E+00  0.00000000E+00  0.00000000E+00
  0.00000000E+00  0.00000000E+00  0.00000000E+00
  0.00000000E+00  0.00000000E+00  0.00000000E+00
  0.00000000E+00  0.00000000E+00  0.00000000E+00
  0.00000000E+00  0.00000000E+00  0.00000000E+00
  0.00000000E+00  0.00000000E+00  0.00000000E+00
  0.00000000E+00  0.00000000E+00  0.00000000E+00
  0.00000000E+00  0.00000000E+00  0.00000000E+00
  0.00000000E+00  0.00000000E+00  0.00000000E+00
  0.00000000E+00  0.00000000E+00  0.00000000E+00
  0.00000000E+00  0.00000000E+00  0.00000000E+00
  0.00000000E+00  0.00000000E+00  0.00000000E+00
  0.00000000E+00  0.00000000E+00  0.00000000E+00
  0.00000000E+00  0.00000000E+00  0.00000000E+00
  0.00000000E+00  0.00000000E+00  0.00000000E+00
  0.00000000E+00  0.00000000E+00  0.00000000E+00
  0.00000000E+00  0.00000000E+00  0.00000000E+00
  0.00000000E+00  0.00000000E+00  0.00000000E+00
  0.00000000E+00  0.00000000E+00  0.00000000E+00
  0.00000000E+00  0.00000000E+00  0.00000000E+00
  0.00000000E+00  0.00000000E+00  0.00000000E+00
  0.00000000E+00  0.00000000E+00  0.00000000E+00
  0.00000000E+00  0.00000000E+00  0.00000000E+00
  0.00000000E+00  0.00000000E+00  0.00000000E+00
  0.00000000E+00  0.00000000E+00  0.00000000E+00
  0.00000000E+00  0.00000000E+00  0.00000000E+00
  0.00000000E+00  0.00000000E+00  0.00000000E+00
  0.00000000E+00  0.00000000E+00  0.00000000E+00
  0.00000000E+00  0.00000000E+00  0.00000000E+00
  0.00000000E+00  0.00000000E+00  0.00000000E+00
  0.00000000E+00  0.00000000E+00  0.00000000E+00
  0.00000000E+00  0.00000000E+00  0.00000000E+00
  0.00000000E+00  0.00000000E+00  0.00000000E+00
  0.00000000E+00  0.00000000E+00  0.00000000E+00
  0.00000000E+00  0.00000000E+00  0.00000000E+00
  0.00000000E+00  0.00000000E+00  0.00000000E+00
  0.00000000E+00  0.00000000E+00  0.00000000E+00
  0.00000000E+00  0.00000000E+00  0.00000000E+00
  0.00000000E+00  0.00000000E+00  0.00000000E+00
  0.00000000E+00  0.00000000E+00  0.00000000E+00
  0.00000000E+00  0.00000000E+00  0.00000000E+00
  0.00000000E+00  0.00000000E+00  0.00000000E+00
  0.00000000E+00  0.00000000E+00  0.00000000E+00
  0.00000000E+00  0.00000000E+00  0.00000000E+00
  0.00000000E+00  0.00000000E+00  0.00000000E+00
  0.00000000E+00  0.00000000E+00  0.00000000E+00
  0.00000000E+00  0.00000000E+00  0.00000000E+00
  0.00000000E+00  0.00000000E+00  0.00000000E+00
  0.00000000E+00  0.00000000E+00  0.00000000E+00
  0.00000000E+00  0.00000000E+00  0.00000000E+00
  0.00000000E+00  0.00000000E+00  0.00000000E+00
  0.00000000E+00  0.00000000E+00  0.00000000E+00
  0.00000000E+00  0.00000000E+00  0.00000000E+00
  0.00000000E+00  0.00000000E+00  0.00000000E+00
  0.00000000E+00  0.00000000E+00  0.00000000E+00
  0.00000000E+00  0.00000000E+00  0.00000000E+00
  0.00000000E+00  0.00000000E+00  0.00000000E+00
  0.00000000E+00  0.00000000E+00  0.00000000E+00
  0.00000000E+00  0.00000000E+00  0.00000000E+00
  0.00000000E+00  0.00000000E+00  0.00000000E+00
  0.00000000E+00  0.00000000E+00  0.00000000E+00
  0.00000000E+00  0.00000000E+00  0.00000000E+00
  0.00000000E+00  0.00000000E+00  0.00000000E+00
  0.00000000E+00  0.00000000E+00  0.00000000E+00
  0.00000000E+00  0.00000000E+00  0.00000000E+00
  0.00000000E+00  0.00000000E+00  0.00000000E+00
  0.00000000E+00  0.00000000E+00  0.00000000E+00
  0.00000000E+00  0.00000000E+00  0.00000000E+00
