 C Pt                                   
   1.0000000000000000     
    17.0979999999999990    0.0000000000000000    0.0000000000000000
     0.0000000000000000   19.7420000000000009    0.0000000000000000
     0.0000000000000000    0.0000000000000000   20.0000000000000000
   C    Pt
   128    12
Direct
  0.2912454180685322  0.8439343046710830  0.3745407767705810
  0.2912634801453810  0.9687208276897710  0.3747445067681452
  0.2911903984679116  0.0935483560986039  0.3739118639385360
  0.2910699342955387  0.2184523145735382  0.3741633804490426
  0.2911909166307002  0.3436564596028689  0.3751808481992805
  0.2907853839859459  0.4687396451747590  0.3728153027345715
  0.2911608662795926  0.5939978528056150  0.3730661112260951
  0.2910766130919362  0.7191502980268881  0.3739772466835224
  0.1663667545453473  0.7813167631238769  0.3754714090623261
  0.1663726402275108  0.9062893666202877  0.3755818781500697
  0.1662481431121905  0.0311709381623587  0.3753939008556189
  0.1663149650642182  0.1561356506129511  0.3754050775310575
  0.1663621547342732  0.2810611378919435  0.3751409621954091
  0.1663578950157011  0.4061240766190799  0.3738258348121917
  0.1663505588442203  0.5313016020986129  0.3729637428547624
  0.1663766110136924  0.6563890227877014  0.3741652961572303
  0.0414945092132577  0.8437523161087670  0.3758526710740864
  0.0414759922437910  0.9687077226245041  0.3760840802463691
  0.0414000769457951  0.0937093115463481  0.3760522096678718
  0.0414235174512257  0.2187095797358038  0.3752914911298671
  0.0415966119637115  0.3436785492586084  0.3737876817986416
  0.0417696830663847  0.4687305662623591  0.3721699764199800
  0.0416151604590489  0.5937001752598482  0.3726362589441433
  0.0415813717256069  0.7186658093494684  0.3742210917714632
  0.9167079085079239  0.7811978564407832  0.3754042088442510
  0.9166361618529801  0.9061853859089471  0.3765040730174397
  0.9165156169876246  0.0312029597297231  0.3765160995626877
  0.9166017793471491  0.1562526148161784  0.3758468197750118
  0.9167874844302643  0.2812491202495689  0.3734019276001220
  0.9171276041954858  0.4062907636355913  0.3689810808593141
  0.9169676710550930  0.5310713380964325  0.3684042686246828
  0.9165985728490884  0.6562259114804607  0.3719405268970798
  0.7917153879790929  0.8436852125595165  0.3771646023150834
  0.7916409114859554  0.9686884479407046  0.3768546149452399
  0.7916389803704829  0.0937418739979233  0.3767831671882864
  0.7918205844048475  0.2186247987253829  0.3758504493705070
  0.7928178436837571  0.3439001506386868  0.3703984928554745
  0.7921839032214766  0.4687515334252207  0.3623610970543344
  0.7919109433105563  0.5937192605888684  0.3666548789300308
  0.7921221643449901  0.7187940642822047  0.3746639586355983
  0.6666859940451652  0.7814677413104447  0.3760125574494812
  0.6665481340990272  0.9063458782849969  0.3765954610885734
  0.6665061599145080  0.0311465736556649  0.3761994513881646
  0.6667758098004746  0.1561745995655447  0.3761322425046190
  0.6667892897430272  0.2811179214675290  0.3790944580702273
  0.6667126685463745  0.4071965563586977  0.3586972669054544
  0.6673056809579464  0.5312422878964559  0.3561346061414526
  0.6669007584518074  0.6565036102361548  0.3725553594947452
  0.5415122030456148  0.8439913494831924  0.3742546807931624
  0.5414699505211028  0.9687378516793860  0.3751146511430754
  0.5414872409866133  0.0936514577978713  0.3737315920168721
  0.5411094824184990  0.2182292240774829  0.3731101243794785
  0.5419899499809147  0.3444881622229552  0.3714471906636702
  0.5425327708658383  0.4688704529811137  0.3575315552182111
  0.5422725342978462  0.5937381896950894  0.3672580041361875
  0.5413095792635001  0.7196000380254189  0.3696079817709665
  0.4161852416508322  0.7816663509809091  0.3721048036701152
  0.4163439728165703  0.9063573662896401  0.3741735004175766
  0.4163119149879149  0.0311705293582789  0.3737361563486653
  0.4160897090700246  0.1559112248309089  0.3719185048796380
  0.4155772781489311  0.2801035456953838  0.3748196354794204
  0.4153295211469089  0.4069494755345400  0.3776378757137289
  0.4152087757976353  0.5314452763011761  0.3722099239778763
  0.4157107924745070  0.6575870463408882  0.3713268149766764
  0.2079549296303522  0.8437899434708054  0.3753216814088846
  0.2079956832541427  0.9687145731355320  0.3752807969194709
  0.2078928182049802  0.0936347639100989  0.3749598959441627
  0.2079157808509679  0.2186024296883991  0.3750673032636375
  0.2080971599801945  0.3435889092724732  0.3746278585761019
  0.2078767381401563  0.4687473348167869  0.3729005843175582
  0.2080860300645430  0.5938883213190531  0.3734416103837876
  0.2078872160580393  0.7188429950164505  0.3748341797532688
  0.0831209293875359  0.7811700261648674  0.3753720290061256
  0.0830818982489918  0.9062318685305517  0.3759745907926898
  0.0830093057567136  0.0311556787879758  0.3758585055980259
  0.0830578217592236  0.1562011300146460  0.3757613710656070
  0.0832195150638663  0.2811734711298757  0.3749326600258884
  0.0833075687128775  0.4062359955244202  0.3734979423817800
  0.0833180697375108  0.5312273971352092  0.3727411968772657
  0.0833073048279586  0.6561938472435166  0.3736855160941527
  0.9582413662139651  0.8436824286940215  0.3760890902426886
  0.9581599383240280  0.9685980176237705  0.3763248105493043
  0.9580989990099352  0.0937367334384436  0.3762807400725823
  0.9583027860933478  0.2187548499968300  0.3750660811694462
  0.9584749018715756  0.3437424431280395  0.3721709451523514
  0.9587061545350050  0.4687586190005205  0.3694577131182039
  0.9584890559327425  0.5936234179536846  0.3709569238899129
  0.9582954351672484  0.7186700394320271  0.3739302528381398
  0.8335019217021172  0.7811811895950280  0.3760426127183406
  0.8333250292054020  0.9062099013392947  0.3769049678311484
  0.8332238010417383  0.0311487681258996  0.3768124905982895
  0.8332938963960803  0.1561882019175605  0.3761583053510571
  0.8336046349312606  0.2813770375097090  0.3733171988340239
  0.8339238174595850  0.4063583561605664  0.3663091169613406
  0.8336021160528915  0.5309898623945156  0.3651496725716844
  0.8335166354244186  0.6562191505637542  0.3712530662582054
  0.7083640535297115  0.8438805613321512  0.3770573668587616
  0.7082158529733217  0.9687225077700333  0.3767645333156731
  0.7082741047243682  0.0936239100269711  0.3763143730427341
  0.7088358228820270  0.2182087497163656  0.3775735728563986
  0.7086160278071196  0.3450918623943431  0.3740558166647145
  0.7089152944346113  0.4689399011621070  0.3567462047839174
  0.7088800793885301  0.5934673426848447  0.3647911961188788
  0.7088698865496318  0.7192179090416998  0.3756635956417724
  0.5832020528732601  0.7815734694704083  0.3734267729578187
  0.5831774554147952  0.9063876615327936  0.3755794461163353
  0.5831623718129100  0.0311780547906654  0.3751982028239729
  0.5830671038238113  0.1561012311482906  0.3741944918963422
  0.5828676448357344  0.2805340902543371  0.3745979572358303
  0.5839490101642520  0.4071956310241586  0.3578683193874775
  0.5843242282472472  0.5307850850054854  0.3561018823408759
  0.5831740385692876  0.6576822572601686  0.3677327292730656
  0.4580667090827512  0.8440538170975516  0.3733107844092673
  0.4580398024613103  0.9688200736213937  0.3744543511735566
  0.4579752279314593  0.0935129118230917  0.3727047909516750
  0.4575720181461128  0.2181390740915308  0.3719640411276468
  0.4577611290822362  0.3432961094894886  0.3785022615515037
  0.4587830249349679  0.4691489494627276  0.3722507501139553
  0.4575283843949118  0.5944914575315414  0.3730903071058816
  0.4576637317077021  0.7194972803365299  0.3700766343831998
  0.3328190948754582  0.7814871132766621  0.3735861054966440
  0.3328615654255727  0.9063761498741548  0.3744339921106235
  0.3328982278867322  0.0311445438617858  0.3740871185132989
  0.3327286010869004  0.1560118957212179  0.3730921565881573
  0.3327635474130692  0.2808711588514432  0.3749617223017805
  0.3321787041646146  0.4063909691893820  0.3751263004097709
  0.3324569991505859  0.5313065242627489  0.3723073105374613
  0.3328969060603126  0.6567622510195554  0.3730499120375709
  0.7180883695358873  0.5215222103193727  0.5332373023317734
  0.5190693946892233  0.5861160877065971  0.4720446607829355
  0.6593311926666054  0.6308985542882120  0.4916309843394695
  0.5172161200397351  0.3436598502967282  0.4778036416647716
  0.4566147876813150  0.4649385450734032  0.4832910392580678
  0.4338017272040179  0.5747103790161849  0.5790052629989317
  0.5868791474708469  0.5619610899393491  0.5844502665783731
  0.4864599975638937  0.4590866370293434  0.6066623276024434
  0.5290174416489154  0.3367786125798252  0.6047039364734240
  0.6734769595897394  0.3406117339631288  0.4784941893269519
  0.6274463137786709  0.4257603754097251  0.5684886680450977
  0.7735578476589634  0.4066181523021272  0.5484188248618314

  0.00000000E+00  0.00000000E+00  0.00000000E+00
  0.00000000E+00  0.00000000E+00  0.00000000E+00
  0.00000000E+00  0.00000000E+00  0.00000000E+00
  0.00000000E+00  0.00000000E+00  0.00000000E+00
  0.00000000E+00  0.00000000E+00  0.00000000E+00
  0.00000000E+00  0.00000000E+00  0.00000000E+00
  0.00000000E+00  0.00000000E+00  0.00000000E+00
  0.00000000E+00  0.00000000E+00  0.00000000E+00
  0.00000000E+00  0.00000000E+00  0.00000000E+00
  0.00000000E+00  0.00000000E+00  0.00000000E+00
  0.00000000E+00  0.00000000E+00  0.00000000E+00
  0.00000000E+00  0.00000000E+00  0.00000000E+00
  0.00000000E+00  0.00000000E+00  0.00000000E+00
  0.00000000E+00  0.00000000E+00  0.00000000E+00
  0.00000000E+00  0.00000000E+00  0.00000000E+00
  0.00000000E+00  0.00000000E+00  0.00000000E+00
  0.00000000E+00  0.00000000E+00  0.00000000E+00
  0.00000000E+00  0.00000000E+00  0.00000000E+00
  0.00000000E+00  0.00000000E+00  0.00000000E+00
  0.00000000E+00  0.00000000E+00  0.00000000E+00
  0.00000000E+00  0.00000000E+00  0.00000000E+00
  0.00000000E+00  0.00000000E+00  0.00000000E+00
  0.00000000E+00  0.00000000E+00  0.00000000E+00
  0.00000000E+00  0.00000000E+00  0.00000000E+00
  0.00000000E+00  0.00000000E+00  0.00000000E+00
  0.00000000E+00  0.00000000E+00  0.00000000E+00
  0.00000000E+00  0.00000000E+00  0.00000000E+00
  0.00000000E+00  0.00000000E+00  0.00000000E+00
  0.00000000E+00  0.00000000E+00  0.00000000E+00
  0.00000000E+00  0.00000000E+00  0.00000000E+00
  0.00000000E+00  0.00000000E+00  0.00000000E+00
  0.00000000E+00  0.00000000E+00  0.00000000E+00
  0.00000000E+00  0.00000000E+00  0.00000000E+00
  0.00000000E+00  0.00000000E+00  0.00000000E+00
  0.00000000E+00  0.00000000E+00  0.00000000E+00
  0.00000000E+00  0.00000000E+00  0.00000000E+00
  0.00000000E+00  0.00000000E+00  0.00000000E+00
  0.00000000E+00  0.00000000E+00  0.00000000E+00
  0.00000000E+00  0.00000000E+00  0.00000000E+00
  0.00000000E+00  0.00000000E+00  0.00000000E+00
  0.00000000E+00  0.00000000E+00  0.00000000E+00
  0.00000000E+00  0.00000000E+00  0.00000000E+00
  0.00000000E+00  0.00000000E+00  0.00000000E+00
  0.00000000E+00  0.00000000E+00  0.00000000E+00
  0.00000000E+00  0.00000000E+00  0.00000000E+00
  0.00000000E+00  0.00000000E+00  0.00000000E+00
  0.00000000E+00  0.00000000E+00  0.00000000E+00
  0.00000000E+00  0.00000000E+00  0.00000000E+00
  0.00000000E+00  0.00000000E+00  0.00000000E+00
  0.00000000E+00  0.00000000E+00  0.00000000E+00
  0.00000000E+00  0.00000000E+00  0.00000000E+00
  0.00000000E+00  0.00000000E+00  0.00000000E+00
  0.00000000E+00  0.00000000E+00  0.00000000E+00
  0.00000000E+00  0.00000000E+00  0.00000000E+00
  0.00000000E+00  0.00000000E+00  0.00000000E+00
  0.00000000E+00  0.00000000E+00  0.00000000E+00
  0.00000000E+00  0.00000000E+00  0.00000000E+00
  0.00000000E+00  0.00000000E+00  0.00000000E+00
  0.00000000E+00  0.00000000E+00  0.00000000E+00
  0.00000000E+00  0.00000000E+00  0.00000000E+00
  0.00000000E+00  0.00000000E+00  0.00000000E+00
  0.00000000E+00  0.00000000E+00  0.00000000E+00
  0.00000000E+00  0.00000000E+00  0.00000000E+00
  0.00000000E+00  0.00000000E+00  0.00000000E+00
  0.00000000E+00  0.00000000E+00  0.00000000E+00
  0.00000000E+00  0.00000000E+00  0.00000000E+00
  0.00000000E+00  0.00000000E+00  0.00000000E+00
  0.00000000E+00  0.00000000E+00  0.00000000E+00
  0.00000000E+00  0.00000000E+00  0.00000000E+00
  0.00000000E+00  0.00000000E+00  0.00000000E+00
  0.00000000E+00  0.00000000E+00  0.00000000E+00
  0.00000000E+00  0.00000000E+00  0.00000000E+00
  0.00000000E+00  0.00000000E+00  0.00000000E+00
  0.00000000E+00  0.00000000E+00  0.00000000E+00
  0.00000000E+00  0.00000000E+00  0.00000000E+00
  0.00000000E+00  0.00000000E+00  0.00000000E+00
  0.00000000E+00  0.00000000E+00  0.00000000E+00
  0.00000000E+00  0.00000000E+00  0.00000000E+00
  0.00000000E+00  0.00000000E+00  0.00000000E+00
  0.00000000E+00  0.00000000E+00  0.00000000E+00
  0.00000000E+00  0.00000000E+00  0.00000000E+00
  0.00000000E+00  0.00000000E+00  0.00000000E+00
  0.00000000E+00  0.00000000E+00  0.00000000E+00
  0.00000000E+00  0.00000000E+00  0.00000000E+00
  0.00000000E+00  0.00000000E+00  0.00000000E+00
  0.00000000E+00  0.00000000E+00  0.00000000E+00
  0.00000000E+00  0.00000000E+00  0.00000000E+00
  0.00000000E+00  0.00000000E+00  0.00000000E+00
  0.00000000E+00  0.00000000E+00  0.00000000E+00
  0.00000000E+00  0.00000000E+00  0.00000000E+00
  0.00000000E+00  0.00000000E+00  0.00000000E+00
  0.00000000E+00  0.00000000E+00  0.00000000E+00
  0.00000000E+00  0.00000000E+00  0.00000000E+00
  0.00000000E+00  0.00000000E+00  0.00000000E+00
  0.00000000E+00  0.00000000E+00  0.00000000E+00
  0.00000000E+00  0.00000000E+00  0.00000000E+00
  0.00000000E+00  0.00000000E+00  0.00000000E+00
  0.00000000E+00  0.00000000E+00  0.00000000E+00
  0.00000000E+00  0.00000000E+00  0.00000000E+00
  0.00000000E+00  0.00000000E+00  0.00000000E+00
  0.00000000E+00  0.00000000E+00  0.00000000E+00
  0.00000000E+00  0.00000000E+00  0.00000000E+00
  0.00000000E+00  0.00000000E+00  0.00000000E+00
  0.00000000E+00  0.00000000E+00  0.00000000E+00
  0.00000000E+00  0.00000000E+00  0.00000000E+00
  0.00000000E+00  0.00000000E+00  0.00000000E+00
  0.00000000E+00  0.00000000E+00  0.00000000E+00
  0.00000000E+00  0.00000000E+00  0.00000000E+00
  0.00000000E+00  0.00000000E+00  0.00000000E+00
  0.00000000E+00  0.00000000E+00  0.00000000E+00
  0.00000000E+00  0.00000000E+00  0.00000000E+00
  0.00000000E+00  0.00000000E+00  0.00000000E+00
  0.00000000E+00  0.00000000E+00  0.00000000E+00
  0.00000000E+00  0.00000000E+00  0.00000000E+00
  0.00000000E+00  0.00000000E+00  0.00000000E+00
  0.00000000E+00  0.00000000E+00  0.00000000E+00
  0.00000000E+00  0.00000000E+00  0.00000000E+00
  0.00000000E+00  0.00000000E+00  0.00000000E+00
  0.00000000E+00  0.00000000E+00  0.00000000E+00
  0.00000000E+00  0.00000000E+00  0.00000000E+00
  0.00000000E+00  0.00000000E+00  0.00000000E+00
  0.00000000E+00  0.00000000E+00  0.00000000E+00
  0.00000000E+00  0.00000000E+00  0.00000000E+00
  0.00000000E+00  0.00000000E+00  0.00000000E+00
  0.00000000E+00  0.00000000E+00  0.00000000E+00
  0.00000000E+00  0.00000000E+00  0.00000000E+00
  0.00000000E+00  0.00000000E+00  0.00000000E+00
  0.00000000E+00  0.00000000E+00  0.00000000E+00
  0.00000000E+00  0.00000000E+00  0.00000000E+00
  0.00000000E+00  0.00000000E+00  0.00000000E+00
  0.00000000E+00  0.00000000E+00  0.00000000E+00
  0.00000000E+00  0.00000000E+00  0.00000000E+00
  0.00000000E+00  0.00000000E+00  0.00000000E+00
  0.00000000E+00  0.00000000E+00  0.00000000E+00
  0.00000000E+00  0.00000000E+00  0.00000000E+00
  0.00000000E+00  0.00000000E+00  0.00000000E+00
  0.00000000E+00  0.00000000E+00  0.00000000E+00
  0.00000000E+00  0.00000000E+00  0.00000000E+00
  0.00000000E+00  0.00000000E+00  0.00000000E+00
  0.00000000E+00  0.00000000E+00  0.00000000E+00
