 C Pt                                   
   1.0000000000000000     
    17.0979999999999990    0.0000000000000000    0.0000000000000000
     0.0000000000000000   19.7420000000000009    0.0000000000000000
     0.0000000000000000    0.0000000000000000   20.0000000000000000
   C    Pt
   128    12
Direct
  0.2914323720304962  0.2183008458130135  0.3578133132204528
  0.2913638658692067  0.3432491799852260  0.3565109506110859
  0.2909611669715864  0.4681171779575485  0.3538184612036583
  0.2908684411806184  0.5935186797183452  0.3535287552989082
  0.2908825280601955  0.7188488803830932  0.3544008094015826
  0.2912467044486337  0.8436515091458785  0.3565146053084733
  0.2914295548039074  0.9686019171219991  0.3574987981458365
  0.2915069096502333  0.0934544706761667  0.3577490521139291
  0.1665581074553315  0.1558664188558728  0.3575023988238891
  0.1664492715868990  0.2807819791257643  0.3578355598457943
  0.1663696247552817  0.4057503193804896  0.3572251603474128
  0.1662700086900374  0.5308985338603437  0.3564087163071862
  0.1662121100793362  0.6560492273057151  0.3564041249840000
  0.1662069514958650  0.7811860340822021  0.3570436303875157
  0.1663611044650527  0.9061327760642953  0.3575228785624009
  0.1665298791339624  0.0310433869821797  0.3572769676091707
  0.0415395363466875  0.2183280621572227  0.3575755540465331
  0.0415653863184100  0.3432499144046587  0.3578413413372774
  0.0416249302771578  0.4682207988494846  0.3576585328988368
  0.0413642155473500  0.5933984468154062  0.3577630126470499
  0.0414228737431284  0.7186245073098155  0.3573335009757145
  0.0413712218023774  0.8436474214732589  0.3574244144656919
  0.0415087893108745  0.9685652986970746  0.3572386320713450
  0.0415686330529878  0.0934647586610168  0.3571563082683709
  0.9165592708290768  0.1558959596735403  0.3574271799765899
  0.9165543434114817  0.2807422291149808  0.3571722629388333
  0.9168371449555232  0.4055484178211188  0.3568976943460728
  0.9169043936596745  0.5305970983747262  0.3590701885691221
  0.9166678685767781  0.6560857966521746  0.3590232751380902
  0.9166460964685275  0.7811695869535622  0.3572748285550408
  0.9164805397196190  0.9060917873337501  0.3571340523078830
  0.9165387816064388  0.0309988350234050  0.3572844521166068
  0.7915191497841222  0.2182900356357544  0.3569356664994753
  0.7917007364169575  0.3430248633978519  0.3546408443215973
  0.7919966164668231  0.4677199928675979  0.3561413309671825
  0.7924448881313965  0.5930910256439144  0.3660879450330892
  0.7919892222065616  0.7187733759061241  0.3595974384832166
  0.7915358373356567  0.8436713638171169  0.3568861818279303
  0.7915047265588588  0.9685568080502880  0.3571742408444619
  0.7914908141090935  0.0934359343133450  0.3576975436547705
  0.6665063676337742  0.1558374241436513  0.3575492236021292
  0.6664918787831752  0.2806135382080122  0.3545061753753073
  0.6667794958310371  0.4052664944316972  0.3510812028605548
  0.6670254441063590  0.5293990949702208  0.3636664891677474
  0.6667831107047705  0.6564320868740452  0.3673045913033239
  0.6666159752646851  0.7812748325687399  0.3565658820909697
  0.6664603185081802  0.9061398038611882  0.3561713285668329
  0.6665014037472291  0.0310253753159046  0.3576080853183868
  0.5414689191169589  0.2183396358786394  0.3566615599249180
  0.5413283543379380  0.3431038161685803  0.3519407314109317
  0.5407405618880504  0.4673033274441134  0.3516626231309911
  0.5400109576853108  0.5934481291506482  0.3652819162065855
  0.5409634743997909  0.7192225061726314  0.3550026452200391
  0.5413754550232593  0.8435976996065339  0.3542166666758914
  0.5415342703065553  0.9684993973896922  0.3569715433859345
  0.5415658945343301  0.0934316982807138  0.3580800840382621
  0.4164949470361727  0.1558850556327156  0.3579893752145740
  0.4163704602144042  0.2808077918375790  0.3561598805933831
  0.4161164264171958  0.4054530078371738  0.3518260059288384
  0.4151209449458917  0.5299373716781686  0.3524974426100781
  0.4150725972860101  0.6570392907492790  0.3539923725031306
  0.4161368934315121  0.7813144953514307  0.3533539728635842
  0.4163769856720657  0.9060204595223760  0.3563178825520142
  0.4164957796813458  0.0310089465488212  0.3578072142161299
  0.2081186383436363  0.2184038448340841  0.3577863824086187
  0.2080771535861027  0.3432757919840456  0.3574591774673295
  0.2078618361671644  0.4682962864176511  0.3559172886572788
  0.2079647782325821  0.5934772356664431  0.3554772704238362
  0.2077038248530375  0.7186811132804266  0.3560162545494696
  0.2080001710215579  0.8436885273361704  0.3572409997152120
  0.2080535069844137  0.9685467219032712  0.3574639215888841
  0.2080541692781998  0.0934911342766647  0.3574234023717558
  0.0830705523842971  0.1559271176661963  0.3573523310011592
  0.0832012902942102  0.2808082295447470  0.3578115038765105
  0.0831774481904825  0.4057628676071637  0.3577128221938166
  0.0831592520392008  0.5309079495136918  0.3574734364285583
  0.0830938111295201  0.6560550201216685  0.3573231070437500
  0.0830152700981855  0.7811529968253147  0.3573541121758991
  0.0831064533114610  0.9061326766037375  0.3574475955675654
  0.0830424738170304  0.0310171610274893  0.3571408409086548
  0.9581756676412696  0.2183036166585673  0.3574710745451905
  0.9583262555241757  0.3432031179445948  0.3573481149612918
  0.9584443058722498  0.4681702634114179  0.3576915159342464
  0.9583686450920788  0.5933845134369699  0.3587235945397174
  0.9582553528080486  0.7186560460403003  0.3575823396406609
  0.9581908772173643  0.8436689918814101  0.3571914214857405
  0.9580765516428262  0.9686104244081943  0.3571934805804967
  0.9580744655821543  0.0934674180054884  0.3572916055261747
  0.8331266769510567  0.1558887660450489  0.3575263368415967
  0.8332513262187423  0.2807092411898581  0.3563603211974313
  0.8335623257891265  0.4053260637855443  0.3552359165150052
  0.8340996948598812  0.5299216650389863  0.3609557420617603
  0.8339777294319417  0.6564636455877708  0.3618038534911379
  0.8333335548464390  0.7812958931143567  0.3573976805806923
  0.8331520718256578  0.9061307780884389  0.3569874197041335
  0.8330867352684782  0.0310149807382210  0.3574469884592272
  0.7081257879691762  0.2183651587559232  0.3565741821231551
  0.7082488785305332  0.3430513615239665  0.3528276982173132
  0.7090829129745490  0.4669975919308564  0.3546143177650227
  0.7092994074362562  0.5927670913022809  0.3658521948752424
  0.7087579547719167  0.7194743445795261  0.3605985486832932
  0.7082247203037431  0.8436892291523204  0.3562634659304803
  0.7080784994103442  0.9685297543120757  0.3570462319496295
  0.7080859688797843  0.0934400096902939  0.3578366006576353
  0.5830515378976056  0.1559062054041326  0.3576619513102651
  0.5831347592828222  0.2806734634816098  0.3543809342135775
  0.5829573023329944  0.4054223316634373  0.3502246427415094
  0.5826219686119773  0.5294512389942849  0.3632447157491434
  0.5825263747325456  0.6570214662183219  0.3638728655516759
  0.5829355779753076  0.7812390931980131  0.3542253085894973
  0.5831034052174774  0.9061375595888704  0.3557515982447278
  0.5830297835701743  0.0309947405901568  0.3577224552489336
  0.4580996745164392  0.2183424111173179  0.3571798860768681
  0.4579122978664701  0.3431062570694115  0.3533268116782405
  0.4577028411376018  0.4679325195439485  0.3504098660934031
  0.4561087819732513  0.5934880581562094  0.3590007567676431
  0.4576403325960022  0.7189380486587499  0.3527905643130521
  0.4579224621739457  0.8437375607529478  0.3545163293416644
  0.4580383311769004  0.9685674478857775  0.3571726483415927
  0.4580708996361861  0.0934524616183553  0.3580864543123013
  0.3331233231106647  0.1559735070687352  0.3579414807218607
  0.3330314146265265  0.2808517608226505  0.3570675850800683
  0.3327182394255272  0.4057010361171322  0.3541120818953351
  0.3324457912724473  0.5306720217563125  0.3524181401900444
  0.3322819219809250  0.6562969104454585  0.3531037098410111
  0.3326721113250635  0.7812671606807189  0.3547579115505703
  0.3330072886378028  0.9060962647736523  0.3569422038186463
  0.3330990879050835  0.0309849633613466  0.3576930745606988
  0.4836525100077070  0.5907935883960205  0.4658651918275923
  0.6312834529138941  0.6539839430282478  0.6034106613781889
  0.5817175025559677  0.4072322705510552  0.5201553158147906
  0.5148041223353202  0.7013095524667061  0.5372652230848152
  0.7566764998304293  0.5869464174855576  0.6151557637738301
  0.7683554030323254  0.5822652263915327  0.4872445575333575
  0.6267044811614543  0.5211924259870520  0.4712681705613379
  0.4123930304411438  0.6084121424693485  0.5772510624911246
  0.6414239117613236  0.6577230793293595  0.4769092554889122
  0.4553912578504516  0.4766708220791556  0.5266465828465292
  0.5439341265701435  0.5530957841324128  0.5943550041836468
  0.6694040111576650  0.4859883473338539  0.5884931729163664

  0.00000000E+00  0.00000000E+00  0.00000000E+00
  0.00000000E+00  0.00000000E+00  0.00000000E+00
  0.00000000E+00  0.00000000E+00  0.00000000E+00
  0.00000000E+00  0.00000000E+00  0.00000000E+00
  0.00000000E+00  0.00000000E+00  0.00000000E+00
  0.00000000E+00  0.00000000E+00  0.00000000E+00
  0.00000000E+00  0.00000000E+00  0.00000000E+00
  0.00000000E+00  0.00000000E+00  0.00000000E+00
  0.00000000E+00  0.00000000E+00  0.00000000E+00
  0.00000000E+00  0.00000000E+00  0.00000000E+00
  0.00000000E+00  0.00000000E+00  0.00000000E+00
  0.00000000E+00  0.00000000E+00  0.00000000E+00
  0.00000000E+00  0.00000000E+00  0.00000000E+00
  0.00000000E+00  0.00000000E+00  0.00000000E+00
  0.00000000E+00  0.00000000E+00  0.00000000E+00
  0.00000000E+00  0.00000000E+00  0.00000000E+00
  0.00000000E+00  0.00000000E+00  0.00000000E+00
  0.00000000E+00  0.00000000E+00  0.00000000E+00
  0.00000000E+00  0.00000000E+00  0.00000000E+00
  0.00000000E+00  0.00000000E+00  0.00000000E+00
  0.00000000E+00  0.00000000E+00  0.00000000E+00
  0.00000000E+00  0.00000000E+00  0.00000000E+00
  0.00000000E+00  0.00000000E+00  0.00000000E+00
  0.00000000E+00  0.00000000E+00  0.00000000E+00
  0.00000000E+00  0.00000000E+00  0.00000000E+00
  0.00000000E+00  0.00000000E+00  0.00000000E+00
  0.00000000E+00  0.00000000E+00  0.00000000E+00
  0.00000000E+00  0.00000000E+00  0.00000000E+00
  0.00000000E+00  0.00000000E+00  0.00000000E+00
  0.00000000E+00  0.00000000E+00  0.00000000E+00
  0.00000000E+00  0.00000000E+00  0.00000000E+00
  0.00000000E+00  0.00000000E+00  0.00000000E+00
  0.00000000E+00  0.00000000E+00  0.00000000E+00
  0.00000000E+00  0.00000000E+00  0.00000000E+00
  0.00000000E+00  0.00000000E+00  0.00000000E+00
  0.00000000E+00  0.00000000E+00  0.00000000E+00
  0.00000000E+00  0.00000000E+00  0.00000000E+00
  0.00000000E+00  0.00000000E+00  0.00000000E+00
  0.00000000E+00  0.00000000E+00  0.00000000E+00
  0.00000000E+00  0.00000000E+00  0.00000000E+00
  0.00000000E+00  0.00000000E+00  0.00000000E+00
  0.00000000E+00  0.00000000E+00  0.00000000E+00
  0.00000000E+00  0.00000000E+00  0.00000000E+00
  0.00000000E+00  0.00000000E+00  0.00000000E+00
  0.00000000E+00  0.00000000E+00  0.00000000E+00
  0.00000000E+00  0.00000000E+00  0.00000000E+00
  0.00000000E+00  0.00000000E+00  0.00000000E+00
  0.00000000E+00  0.00000000E+00  0.00000000E+00
  0.00000000E+00  0.00000000E+00  0.00000000E+00
  0.00000000E+00  0.00000000E+00  0.00000000E+00
  0.00000000E+00  0.00000000E+00  0.00000000E+00
  0.00000000E+00  0.00000000E+00  0.00000000E+00
  0.00000000E+00  0.00000000E+00  0.00000000E+00
  0.00000000E+00  0.00000000E+00  0.00000000E+00
  0.00000000E+00  0.00000000E+00  0.00000000E+00
  0.00000000E+00  0.00000000E+00  0.00000000E+00
  0.00000000E+00  0.00000000E+00  0.00000000E+00
  0.00000000E+00  0.00000000E+00  0.00000000E+00
  0.00000000E+00  0.00000000E+00  0.00000000E+00
  0.00000000E+00  0.00000000E+00  0.00000000E+00
  0.00000000E+00  0.00000000E+00  0.00000000E+00
  0.00000000E+00  0.00000000E+00  0.00000000E+00
  0.00000000E+00  0.00000000E+00  0.00000000E+00
  0.00000000E+00  0.00000000E+00  0.00000000E+00
  0.00000000E+00  0.00000000E+00  0.00000000E+00
  0.00000000E+00  0.00000000E+00  0.00000000E+00
  0.00000000E+00  0.00000000E+00  0.00000000E+00
  0.00000000E+00  0.00000000E+00  0.00000000E+00
  0.00000000E+00  0.00000000E+00  0.00000000E+00
  0.00000000E+00  0.00000000E+00  0.00000000E+00
  0.00000000E+00  0.00000000E+00  0.00000000E+00
  0.00000000E+00  0.00000000E+00  0.00000000E+00
  0.00000000E+00  0.00000000E+00  0.00000000E+00
  0.00000000E+00  0.00000000E+00  0.00000000E+00
  0.00000000E+00  0.00000000E+00  0.00000000E+00
  0.00000000E+00  0.00000000E+00  0.00000000E+00
  0.00000000E+00  0.00000000E+00  0.00000000E+00
  0.00000000E+00  0.00000000E+00  0.00000000E+00
  0.00000000E+00  0.00000000E+00  0.00000000E+00
  0.00000000E+00  0.00000000E+00  0.00000000E+00
  0.00000000E+00  0.00000000E+00  0.00000000E+00
  0.00000000E+00  0.00000000E+00  0.00000000E+00
  0.00000000E+00  0.00000000E+00  0.00000000E+00
  0.00000000E+00  0.00000000E+00  0.00000000E+00
  0.00000000E+00  0.00000000E+00  0.00000000E+00
  0.00000000E+00  0.00000000E+00  0.00000000E+00
  0.00000000E+00  0.00000000E+00  0.00000000E+00
  0.00000000E+00  0.00000000E+00  0.00000000E+00
  0.00000000E+00  0.00000000E+00  0.00000000E+00
  0.00000000E+00  0.00000000E+00  0.00000000E+00
  0.00000000E+00  0.00000000E+00  0.00000000E+00
  0.00000000E+00  0.00000000E+00  0.00000000E+00
  0.00000000E+00  0.00000000E+00  0.00000000E+00
  0.00000000E+00  0.00000000E+00  0.00000000E+00
  0.00000000E+00  0.00000000E+00  0.00000000E+00
  0.00000000E+00  0.00000000E+00  0.00000000E+00
  0.00000000E+00  0.00000000E+00  0.00000000E+00
  0.00000000E+00  0.00000000E+00  0.00000000E+00
  0.00000000E+00  0.00000000E+00  0.00000000E+00
  0.00000000E+00  0.00000000E+00  0.00000000E+00
  0.00000000E+00  0.00000000E+00  0.00000000E+00
  0.00000000E+00  0.00000000E+00  0.00000000E+00
  0.00000000E+00  0.00000000E+00  0.00000000E+00
  0.00000000E+00  0.00000000E+00  0.00000000E+00
  0.00000000E+00  0.00000000E+00  0.00000000E+00
  0.00000000E+00  0.00000000E+00  0.00000000E+00
  0.00000000E+00  0.00000000E+00  0.00000000E+00
  0.00000000E+00  0.00000000E+00  0.00000000E+00
  0.00000000E+00  0.00000000E+00  0.00000000E+00
  0.00000000E+00  0.00000000E+00  0.00000000E+00
  0.00000000E+00  0.00000000E+00  0.00000000E+00
  0.00000000E+00  0.00000000E+00  0.00000000E+00
  0.00000000E+00  0.00000000E+00  0.00000000E+00
  0.00000000E+00  0.00000000E+00  0.00000000E+00
  0.00000000E+00  0.00000000E+00  0.00000000E+00
  0.00000000E+00  0.00000000E+00  0.00000000E+00
  0.00000000E+00  0.00000000E+00  0.00000000E+00
  0.00000000E+00  0.00000000E+00  0.00000000E+00
  0.00000000E+00  0.00000000E+00  0.00000000E+00
  0.00000000E+00  0.00000000E+00  0.00000000E+00
  0.00000000E+00  0.00000000E+00  0.00000000E+00
  0.00000000E+00  0.00000000E+00  0.00000000E+00
  0.00000000E+00  0.00000000E+00  0.00000000E+00
  0.00000000E+00  0.00000000E+00  0.00000000E+00
  0.00000000E+00  0.00000000E+00  0.00000000E+00
  0.00000000E+00  0.00000000E+00  0.00000000E+00
  0.00000000E+00  0.00000000E+00  0.00000000E+00
  0.00000000E+00  0.00000000E+00  0.00000000E+00
  0.00000000E+00  0.00000000E+00  0.00000000E+00
  0.00000000E+00  0.00000000E+00  0.00000000E+00
  0.00000000E+00  0.00000000E+00  0.00000000E+00
  0.00000000E+00  0.00000000E+00  0.00000000E+00
  0.00000000E+00  0.00000000E+00  0.00000000E+00
  0.00000000E+00  0.00000000E+00  0.00000000E+00
  0.00000000E+00  0.00000000E+00  0.00000000E+00
  0.00000000E+00  0.00000000E+00  0.00000000E+00
  0.00000000E+00  0.00000000E+00  0.00000000E+00
  0.00000000E+00  0.00000000E+00  0.00000000E+00
  0.00000000E+00  0.00000000E+00  0.00000000E+00
  0.00000000E+00  0.00000000E+00  0.00000000E+00
