 C Pt                                   
   1.0000000000000000     
    17.0979999999999990    0.0000000000000000    0.0000000000000000
     0.0000000000000000   19.7420000000000009    0.0000000000000000
     0.0000000000000000    0.0000000000000000   20.0000000000000000
   C    Pt
   128    12
Direct
  0.4167174628722618  0.0936736318994447  0.3421951545840022
  0.4167405413042268  0.2185458370537666  0.3420994872832122
  0.4166410428454739  0.3435588796570136  0.3414605000364525
  0.4165031653874638  0.4682582919693061  0.3422309417374800
  0.4163360190684530  0.5946634350299832  0.3329018172196210
  0.4161102717175265  0.7191098018313380  0.3305546528653705
  0.4164399228518411  0.8439410091613235  0.3375983480788077
  0.4166383886854956  0.9687607158862022  0.3415292430156186
  0.2916302009606050  0.0312368693395370  0.3418097596068588
  0.2917137305949947  0.1561551818762505  0.3418390779308632
  0.2916159392038228  0.2810524112805073  0.3419516170135442
  0.2916734793109225  0.4060910932434613  0.3411730773245136
  0.2914984300580798  0.5311156164972727  0.3378505476335062
  0.2913364297517117  0.6565187583815992  0.3343660593008336
  0.2914901853647955  0.7814914512960726  0.3368494532406235
  0.2915590586333808  0.9063102605118779  0.3405576683815386
  0.1667104931651212  0.0936572801749449  0.3415270864024602
  0.1667450551660263  0.2186666913994041  0.3414781462323360
  0.1667515844678827  0.3436287218097217  0.3415256176166596
  0.1668296930542413  0.4685776022805213  0.3405164188027992
  0.1667011113317854  0.5937719279693823  0.3385017998116396
  0.1666284529926724  0.7188553437376445  0.3387753857698801
  0.1666761984734748  0.8437932933068013  0.3407421757793192
  0.1666803131435102  0.9688215134587667  0.3417186555207552
  0.0417451003696072  0.0312082729685065  0.3415380427567570
  0.0417437717031749  0.1561238119187838  0.3412383366991871
  0.0417777401215751  0.2811218685995829  0.3416333010841508
  0.0418381247993079  0.4060643773959524  0.3420231695121892
  0.0418865742004872  0.5311850155811746  0.3415158597843838
  0.0418471144290789  0.6562387866457751  0.3410793556856321
  0.0417356706757044  0.7812477176317163  0.3416964770377113
  0.0416915028243332  0.9062585933345192  0.3420000524656829
  0.9168065481196808  0.0936554849532922  0.3411863957592100
  0.9168371832045300  0.2186384187110415  0.3414691134836746
  0.9170016777585148  0.3435361408438372  0.3421651258804985
  0.9169475222193924  0.4686311311586491  0.3423180492329745
  0.9170763985679625  0.5937221821812876  0.3417137728216859
  0.9169682684994861  0.7186981984955699  0.3419871871851679
  0.9169429781417655  0.8438344808140013  0.3421853822220300
  0.9167737432693570  0.9686885731495931  0.3417543875745754
  0.7918053207866628  0.0311772507282011  0.3415283293166221
  0.7918096559006986  0.1561623043300567  0.3414410201427544
  0.7919844649364219  0.2810593529704868  0.3415433765934189
  0.7921780567813912  0.4059958722096564  0.3412806270035741
  0.7923349020386395  0.5311708246867723  0.3393233965760096
  0.7922780741444763  0.6560836187146939  0.3383519856470152
  0.7920979712297255  0.7813055967028644  0.3403864811912594
  0.7918592516827840  0.9062768472276822  0.3415376572222524
  0.6667467626824763  0.0936329899769352  0.3418820101071353
  0.6668238481483643  0.2184818852965914  0.3417042992941837
  0.6670852939962719  0.3433083142632430  0.3405457019827847
  0.6675971451115038  0.4685948527926231  0.3385638018434061
  0.6675370088668137  0.5934035316148596  0.3307108912362891
  0.6681908578077186  0.7188425157871149  0.3344930127341195
  0.6669483605950266  0.8439260530323407  0.3390553139941101
  0.6667299184110483  0.9687342795040742  0.3416193355780482
  0.5417042812217669  0.0312390137341660  0.3420574931642961
  0.5417023857409791  0.1561070446584389  0.3422210550339930
  0.5417915051535922  0.2809453494197048  0.3416327647308527
  0.5416545465048231  0.4057642682953878  0.3410532513343076
  0.5426089411783019  0.5318199975272281  0.3327771515015094
  0.5414759179278438  0.6560301348701925  0.3311900590105929
  0.5411620186449837  0.7822673725733660  0.3353900179679027
  0.5416819157035183  0.9064633599731676  0.3403505804495440
  0.3333908190523981  0.0936971583535689  0.3419708312477831
  0.3333085137045001  0.2186064643421220  0.3419959392798749
  0.3332372000218621  0.3435650780976851  0.3418644129583829
  0.3332684123219073  0.4684814966617329  0.3403865950890457
  0.3330535823147949  0.5939932354126601  0.3346131098553856
  0.3331125402484588  0.7190377545349510  0.3334661851971151
  0.3330384964881447  0.8438884597046348  0.3383924452071844
  0.3333209551344332  0.9687623125506885  0.3414339963836923
  0.2082600781456323  0.0312500619950012  0.3417019237502318
  0.2083307191008410  0.1561359723632809  0.3415664547654255
  0.2083303803035966  0.2811467133455559  0.3416670645599486
  0.2083197177372564  0.4061872388051991  0.3410492715056305
  0.2083388531454200  0.5311702084904434  0.3386975117772447
  0.2080888195067654  0.6563409085211380  0.3370219401607734
  0.2082768686703346  0.7812944067618557  0.3388742943871778
  0.2082780341385755  0.9062820632668429  0.3411459923678179
  0.0834419785201546  0.0936447621551836  0.3413322196360690
  0.0833519238534318  0.2186756969188847  0.3413690221502304
  0.0834295221123087  0.3435959336130018  0.3417332451866154
  0.0835683464864785  0.4686954408624449  0.3414485150357756
  0.0834848915235894  0.5937620051416259  0.3404825195255475
  0.0834040513968902  0.7187525896799144  0.3406929812977905
  0.0833066432437749  0.8437058075122706  0.3416425780120810
  0.0833882427995780  0.9687023097408496  0.3418255528012779
  0.9583782447794453  0.0311651869819533  0.3414435259108000
  0.9583740264861252  0.1561341327228926  0.3412261769484477
  0.9585247898409818  0.2810966672967787  0.3417563741588981
  0.9584993116516728  0.4061060272520547  0.3424022819309737
  0.9585959371948802  0.5311811301371756  0.3420934083466985
  0.9585783781496716  0.6561726341725240  0.3417791796936429
  0.9585055017061065  0.7812182200406720  0.3421962132009974
  0.9584181817525097  0.9062393317719208  0.3420558146239795
  0.8334236632447788  0.0936772676515660  0.3413119418344820
  0.8335141028833951  0.2185773820314982  0.3414987343673310
  0.8337149483737645  0.3434843693654133  0.3418565528984884
  0.8337807766568729  0.4686730993780581  0.3414441493422146
  0.8339535585126929  0.5936405318064152  0.3400347881310281
  0.8336913871231343  0.7186770960196924  0.3407444217302245
  0.8335844956382906  0.8438804829127456  0.3416892283244202
  0.8334809409302756  0.9686730561892523  0.3416666114621030
  0.7083524517811629  0.0311768021659949  0.3417625457281563
  0.7084167295620731  0.1560956234635731  0.3416923587200658
  0.7086105736567654  0.2809964279965194  0.3412902123844169
  0.7090819784366581  0.4057129975513952  0.3401665421223661
  0.7091917762714618  0.5313415967439917  0.3357233121786636
  0.7092913449263709  0.6559733535325526  0.3335202019486717
  0.7089893444066069  0.7814417548617040  0.3379275184360211
  0.7084560960692294  0.9062432250929821  0.3410187812586020
  0.5833841254409217  0.0936686177992842  0.3421619286445595
  0.5834138922661095  0.2185292395747826  0.3419266842308836
  0.5835585729770875  0.3432217643049316  0.3409382892556805
  0.5838050472362804  0.4688722007950660  0.3383803575104446
  0.5841267813791953  0.5931837780031644  0.3281055967113782
  0.5837283995991696  0.7192623393569323  0.3334185048993522
  0.5834256503707753  0.8442592594826299  0.3384196001715387
  0.5834277027992640  0.9688999566119088  0.3415634784101597
  0.4582850628510011  0.0312697926280220  0.3420678744254800
  0.4583984031441735  0.1560774436504412  0.3422574648289683
  0.4584475450467402  0.2809895303089887  0.3417707184764396
  0.4581112810357691  0.4059089314445348  0.3409363697346836
  0.4588188850624199  0.5319845934678186  0.3421015733597422
  0.4573957080461178  0.6564996779374981  0.3288993219722877
  0.4578195071354490  0.7816526610191800  0.3337484722123146
  0.4583016270664822  0.9063777063676853  0.3402568935956835
  0.6207267395950337  0.5880378698582271  0.6368792951790708
  0.5008344313011441  0.5352766264848898  0.6866530800117314
  0.5717911032566787  0.7018288210615690  0.4395362787344864
  0.7201916203111826  0.6308288408025208  0.5524685504989276
  0.4173056816308331  0.5578974795249468  0.5859149459061770
  0.5533539614150544  0.4853639017058098  0.5754349076434560
  0.4600214515101606  0.6614906086218931  0.5176910850655733
  0.5885370483257090  0.6984252745833631  0.5679989217447796
  0.3371892031403843  0.5968125397266855  0.4846768858745088
  0.5915911547358401  0.4635116907263324  0.4556143903457739
  0.5968377072612805  0.5862283092642511  0.4971765057480655
  0.4614232809866864  0.5296406213425929  0.4598491739580636

  0.00000000E+00  0.00000000E+00  0.00000000E+00
  0.00000000E+00  0.00000000E+00  0.00000000E+00
  0.00000000E+00  0.00000000E+00  0.00000000E+00
  0.00000000E+00  0.00000000E+00  0.00000000E+00
  0.00000000E+00  0.00000000E+00  0.00000000E+00
  0.00000000E+00  0.00000000E+00  0.00000000E+00
  0.00000000E+00  0.00000000E+00  0.00000000E+00
  0.00000000E+00  0.00000000E+00  0.00000000E+00
  0.00000000E+00  0.00000000E+00  0.00000000E+00
  0.00000000E+00  0.00000000E+00  0.00000000E+00
  0.00000000E+00  0.00000000E+00  0.00000000E+00
  0.00000000E+00  0.00000000E+00  0.00000000E+00
  0.00000000E+00  0.00000000E+00  0.00000000E+00
  0.00000000E+00  0.00000000E+00  0.00000000E+00
  0.00000000E+00  0.00000000E+00  0.00000000E+00
  0.00000000E+00  0.00000000E+00  0.00000000E+00
  0.00000000E+00  0.00000000E+00  0.00000000E+00
  0.00000000E+00  0.00000000E+00  0.00000000E+00
  0.00000000E+00  0.00000000E+00  0.00000000E+00
  0.00000000E+00  0.00000000E+00  0.00000000E+00
  0.00000000E+00  0.00000000E+00  0.00000000E+00
  0.00000000E+00  0.00000000E+00  0.00000000E+00
  0.00000000E+00  0.00000000E+00  0.00000000E+00
  0.00000000E+00  0.00000000E+00  0.00000000E+00
  0.00000000E+00  0.00000000E+00  0.00000000E+00
  0.00000000E+00  0.00000000E+00  0.00000000E+00
  0.00000000E+00  0.00000000E+00  0.00000000E+00
  0.00000000E+00  0.00000000E+00  0.00000000E+00
  0.00000000E+00  0.00000000E+00  0.00000000E+00
  0.00000000E+00  0.00000000E+00  0.00000000E+00
  0.00000000E+00  0.00000000E+00  0.00000000E+00
  0.00000000E+00  0.00000000E+00  0.00000000E+00
  0.00000000E+00  0.00000000E+00  0.00000000E+00
  0.00000000E+00  0.00000000E+00  0.00000000E+00
  0.00000000E+00  0.00000000E+00  0.00000000E+00
  0.00000000E+00  0.00000000E+00  0.00000000E+00
  0.00000000E+00  0.00000000E+00  0.00000000E+00
  0.00000000E+00  0.00000000E+00  0.00000000E+00
  0.00000000E+00  0.00000000E+00  0.00000000E+00
  0.00000000E+00  0.00000000E+00  0.00000000E+00
  0.00000000E+00  0.00000000E+00  0.00000000E+00
  0.00000000E+00  0.00000000E+00  0.00000000E+00
  0.00000000E+00  0.00000000E+00  0.00000000E+00
  0.00000000E+00  0.00000000E+00  0.00000000E+00
  0.00000000E+00  0.00000000E+00  0.00000000E+00
  0.00000000E+00  0.00000000E+00  0.00000000E+00
  0.00000000E+00  0.00000000E+00  0.00000000E+00
  0.00000000E+00  0.00000000E+00  0.00000000E+00
  0.00000000E+00  0.00000000E+00  0.00000000E+00
  0.00000000E+00  0.00000000E+00  0.00000000E+00
  0.00000000E+00  0.00000000E+00  0.00000000E+00
  0.00000000E+00  0.00000000E+00  0.00000000E+00
  0.00000000E+00  0.00000000E+00  0.00000000E+00
  0.00000000E+00  0.00000000E+00  0.00000000E+00
  0.00000000E+00  0.00000000E+00  0.00000000E+00
  0.00000000E+00  0.00000000E+00  0.00000000E+00
  0.00000000E+00  0.00000000E+00  0.00000000E+00
  0.00000000E+00  0.00000000E+00  0.00000000E+00
  0.00000000E+00  0.00000000E+00  0.00000000E+00
  0.00000000E+00  0.00000000E+00  0.00000000E+00
  0.00000000E+00  0.00000000E+00  0.00000000E+00
  0.00000000E+00  0.00000000E+00  0.00000000E+00
  0.00000000E+00  0.00000000E+00  0.00000000E+00
  0.00000000E+00  0.00000000E+00  0.00000000E+00
  0.00000000E+00  0.00000000E+00  0.00000000E+00
  0.00000000E+00  0.00000000E+00  0.00000000E+00
  0.00000000E+00  0.00000000E+00  0.00000000E+00
  0.00000000E+00  0.00000000E+00  0.00000000E+00
  0.00000000E+00  0.00000000E+00  0.00000000E+00
  0.00000000E+00  0.00000000E+00  0.00000000E+00
  0.00000000E+00  0.00000000E+00  0.00000000E+00
  0.00000000E+00  0.00000000E+00  0.00000000E+00
  0.00000000E+00  0.00000000E+00  0.00000000E+00
  0.00000000E+00  0.00000000E+00  0.00000000E+00
  0.00000000E+00  0.00000000E+00  0.00000000E+00
  0.00000000E+00  0.00000000E+00  0.00000000E+00
  0.00000000E+00  0.00000000E+00  0.00000000E+00
  0.00000000E+00  0.00000000E+00  0.00000000E+00
  0.00000000E+00  0.00000000E+00  0.00000000E+00
  0.00000000E+00  0.00000000E+00  0.00000000E+00
  0.00000000E+00  0.00000000E+00  0.00000000E+00
  0.00000000E+00  0.00000000E+00  0.00000000E+00
  0.00000000E+00  0.00000000E+00  0.00000000E+00
  0.00000000E+00  0.00000000E+00  0.00000000E+00
  0.00000000E+00  0.00000000E+00  0.00000000E+00
  0.00000000E+00  0.00000000E+00  0.00000000E+00
  0.00000000E+00  0.00000000E+00  0.00000000E+00
  0.00000000E+00  0.00000000E+00  0.00000000E+00
  0.00000000E+00  0.00000000E+00  0.00000000E+00
  0.00000000E+00  0.00000000E+00  0.00000000E+00
  0.00000000E+00  0.00000000E+00  0.00000000E+00
  0.00000000E+00  0.00000000E+00  0.00000000E+00
  0.00000000E+00  0.00000000E+00  0.00000000E+00
  0.00000000E+00  0.00000000E+00  0.00000000E+00
  0.00000000E+00  0.00000000E+00  0.00000000E+00
  0.00000000E+00  0.00000000E+00  0.00000000E+00
  0.00000000E+00  0.00000000E+00  0.00000000E+00
  0.00000000E+00  0.00000000E+00  0.00000000E+00
  0.00000000E+00  0.00000000E+00  0.00000000E+00
  0.00000000E+00  0.00000000E+00  0.00000000E+00
  0.00000000E+00  0.00000000E+00  0.00000000E+00
  0.00000000E+00  0.00000000E+00  0.00000000E+00
  0.00000000E+00  0.00000000E+00  0.00000000E+00
  0.00000000E+00  0.00000000E+00  0.00000000E+00
  0.00000000E+00  0.00000000E+00  0.00000000E+00
  0.00000000E+00  0.00000000E+00  0.00000000E+00
  0.00000000E+00  0.00000000E+00  0.00000000E+00
  0.00000000E+00  0.00000000E+00  0.00000000E+00
  0.00000000E+00  0.00000000E+00  0.00000000E+00
  0.00000000E+00  0.00000000E+00  0.00000000E+00
  0.00000000E+00  0.00000000E+00  0.00000000E+00
  0.00000000E+00  0.00000000E+00  0.00000000E+00
  0.00000000E+00  0.00000000E+00  0.00000000E+00
  0.00000000E+00  0.00000000E+00  0.00000000E+00
  0.00000000E+00  0.00000000E+00  0.00000000E+00
  0.00000000E+00  0.00000000E+00  0.00000000E+00
  0.00000000E+00  0.00000000E+00  0.00000000E+00
  0.00000000E+00  0.00000000E+00  0.00000000E+00
  0.00000000E+00  0.00000000E+00  0.00000000E+00
  0.00000000E+00  0.00000000E+00  0.00000000E+00
  0.00000000E+00  0.00000000E+00  0.00000000E+00
  0.00000000E+00  0.00000000E+00  0.00000000E+00
  0.00000000E+00  0.00000000E+00  0.00000000E+00
  0.00000000E+00  0.00000000E+00  0.00000000E+00
  0.00000000E+00  0.00000000E+00  0.00000000E+00
  0.00000000E+00  0.00000000E+00  0.00000000E+00
  0.00000000E+00  0.00000000E+00  0.00000000E+00
  0.00000000E+00  0.00000000E+00  0.00000000E+00
  0.00000000E+00  0.00000000E+00  0.00000000E+00
  0.00000000E+00  0.00000000E+00  0.00000000E+00
  0.00000000E+00  0.00000000E+00  0.00000000E+00
  0.00000000E+00  0.00000000E+00  0.00000000E+00
  0.00000000E+00  0.00000000E+00  0.00000000E+00
  0.00000000E+00  0.00000000E+00  0.00000000E+00
  0.00000000E+00  0.00000000E+00  0.00000000E+00
  0.00000000E+00  0.00000000E+00  0.00000000E+00
  0.00000000E+00  0.00000000E+00  0.00000000E+00
  0.00000000E+00  0.00000000E+00  0.00000000E+00
  0.00000000E+00  0.00000000E+00  0.00000000E+00
  0.00000000E+00  0.00000000E+00  0.00000000E+00
