 C Pt                                   
   1.0000000000000000     
    17.0979999999999990    0.0000000000000000    0.0000000000000000
     0.0000000000000000   19.7420000000000009    0.0000000000000000
     0.0000000000000000    0.0000000000000000   20.0000000000000000
   C    Pt
   128     7
Direct
  0.9168391651512329  0.8436703038614631  0.3916814074261595
  0.9167902617275677  0.9685584309478715  0.3918004264861583
  0.9167081269630384  0.0934839895648199  0.3919394918124447
  0.9166912451219216  0.2183978678515790  0.3919509779088012
  0.9168325463591555  0.3433945288405714  0.3908657166729715
  0.9171841012932469  0.4684102527164828  0.3904148633316711
  0.9168833448054468  0.5936408734982639  0.3912150471044717
  0.9168194161387100  0.7186524829255941  0.3913852063692808
  0.7918841312929724  0.7812484883644006  0.3922863304788085
  0.7919205124853775  0.9061666785432749  0.3917833962531276
  0.7917574183021354  0.0310646774803898  0.3920081952827899
  0.7916926148557542  0.1559053696970444  0.3918616322271161
  0.7918922964885409  0.2808056399083665  0.3902510011241236
  0.7922193053934808  0.4057626532261558  0.3882150683735056
  0.7932568120436349  0.5310266499230603  0.3915427477036190
  0.7918288615397473  0.6562522821310401  0.3926625805593379
  0.6668521697504289  0.8436726840833177  0.3919479303861327
  0.6668416027532698  0.9685567333865956  0.3920483194167591
  0.6667641925137578  0.0934409004825592  0.3919612733176623
  0.6666542228657022  0.2181467400378802  0.3916436049548823
  0.6668442001321512  0.3427487200879405  0.3882681019672660
  0.6679298166720059  0.4677531421432424  0.3872563551391715
  0.6659787070157244  0.5938920716269597  0.3961494298461771
  0.6669476028223461  0.7188514696439614  0.3921347010737060
  0.5418928320457354  0.7811044647062888  0.3910570081841745
  0.5417528818813737  0.9060278365750750  0.3920974350454868
  0.5416491239780054  0.0309269765548983  0.3920134687045644
  0.5416247252146305  0.1557302291193518  0.3920552235721602
  0.5416580227485022  0.2802829743063863  0.3915397815986382
  0.5408753214109400  0.4050397386047637  0.3925728589462044
  0.5408705457318623  0.5317213331808477  0.3830608660636994
  0.5416911270756576  0.6565194724768055  0.3868578337831248
  0.4166806251752514  0.8435738823456219  0.3917014077305691
  0.4167144327148318  0.9684096394199799  0.3918932189274627
  0.4166536372225672  0.0933956333355729  0.3918483112372667
  0.4165510784732954  0.2182961329138193  0.3920886928456309
  0.4159156287876026  0.3429700193318508  0.3898710834101725
  0.4159907860111319  0.4679756335027762  0.3856014532051613
  0.4171712040892762  0.5934224181805352  0.3922750247657131
  0.4167851077139588  0.7189492870866524  0.3904507401004835
  0.2915529611238502  0.7810731393329429  0.3927862309381208
  0.2916762322029388  0.9059675713924321  0.3913682183020652
  0.2916310086330854  0.0309266809148808  0.3918863997067727
  0.2916256050830262  0.1557822944850206  0.3917803678632736
  0.2913992435856171  0.2806694967158275  0.3911503395047956
  0.2912972157816630  0.4055903061837841  0.3900849944866737
  0.2910039887512290  0.5300247442868143  0.3937048386198581
  0.2912639188904401  0.6565515259256655  0.3966081163946678
  0.1666264916694052  0.8435583635538204  0.3914620630061822
  0.1666609765643635  0.9684148554080897  0.3916909626720447
  0.1666379513325661  0.0933914832449548  0.3918460331369777
  0.1665533811457060  0.2182407435960956  0.3920006104248576
  0.1665660542852077  0.3432073787951170  0.3918601126720185
  0.1664969422255486  0.4681683860099864  0.3923766316467853
  0.1666258127369570  0.5933972391633305  0.3946510362200361
  0.1665581435864406  0.7186174018900898  0.3931682982559999
  0.0417177844158987  0.7810465175715546  0.3911384373402695
  0.0416935740291243  0.9060551610377543  0.3917467597650638
  0.0416373423753219  0.0310124411075655  0.3917567645309796
  0.0416758625430809  0.1558441873480155  0.3919708239227646
  0.0416454856657384  0.2807677937350233  0.3925100506113402
  0.0417257601612484  0.4058989061482026  0.3921242062859739
  0.0417791104212321  0.5309456003700209  0.3920516677768258
  0.0418078995128930  0.6560840337367380  0.3916159281724035
  0.8336070096765600  0.8436909910933056  0.3919006660508950
  0.8335316940139008  0.9686348409721995  0.3917941260513896
  0.8334285077541244  0.0935661481022981  0.3920329216087614
  0.8334145382537650  0.2183897456232135  0.3915174123632394
  0.8336417256400281  0.3432583757815044  0.3895418727502362
  0.8340205884461537  0.4683306544306808  0.3896073080642821
  0.8339782070057339  0.5936536858687399  0.3918196764403865
  0.8334922849855345  0.7187318654871262  0.3921051367620347
  0.7086257435376897  0.7812704861677402  0.3921910414423925
  0.7085100190351926  0.9061560617093039  0.3919150322416945
  0.7084624519795312  0.0310558934031915  0.3920216335739848
  0.7084996318193915  0.1558493011668322  0.3919470112410208
  0.7085648712224490  0.2805182841314310  0.3898933320158022
  0.7090921959000086  0.4054572768411255  0.3866707152565628
  0.7094269683763484  0.5306475008685970  0.3931195092194399
  0.7087833138324084  0.6566632568276253  0.3939461160958531
  0.5835616536006299  0.8436669202820692  0.3919382979115959
  0.5834473610888782  0.9684792431321785  0.3921001898854843
  0.5833609740719911  0.0933614950010628  0.3919781182105663
  0.5834328239633404  0.2180324158426859  0.3918746336037449
  0.5836863584039668  0.3421470048916493  0.3907552626707890
  0.5831992849501690  0.4686307892713575  0.3898876918071850
  0.5822862872844381  0.5938837715214441  0.3868240741042735
  0.5835502903984640  0.7189085608234219  0.3901838737558021
  0.4584020185814485  0.7811382721516280  0.3910025806692868
  0.4583042502132340  0.9059662353201204  0.3919186341469719
  0.4583354092984546  0.0309792801134946  0.3919355306734678
  0.4583381697735127  0.1558129430536630  0.3920728561327495
  0.4581768939514945  0.2806264414099060  0.3914617732185014
  0.4567936145576083  0.4055223605772029  0.3886879450609785
  0.4583591881313701  0.5302110704861962  0.3838830960355362
  0.4587569611725992  0.6570062430282247  0.3879790885076609
  0.3333155972102990  0.8435894320773821  0.3917015768756515
  0.3332544129765770  0.9684238444868561  0.3916366855355929
  0.3332406190502865  0.0933321161774144  0.3919117453646972
  0.3332030772225811  0.2182452014885860  0.3917185988300929
  0.3328404100005840  0.3430205470985314  0.3899119392226795
  0.3327804117154686  0.4680255408103954  0.3888439842715014
  0.3329680844765355  0.5930123885263211  0.3983546189148392
  0.3331474948901291  0.7187613519950907  0.3936076173910087
  0.2082612404003670  0.7810666942133794  0.3925251751414485
  0.2083287792019133  0.9060178563028216  0.3913596812069331
  0.2083072335312774  0.0309010605810918  0.3918396653661948
  0.2082947873034821  0.1557644473334047  0.3918427193625373
  0.2081683396593056  0.2806936326451379  0.3917383317144539
  0.2081122492158175  0.4057438901356275  0.3916172455085609
  0.2082689479038690  0.5306511970746328  0.3939063264820357
  0.2082886559130350  0.6561220138992451  0.3955212990494729
  0.0833935661884380  0.8435741693483838  0.3913656268343443
  0.0833702457648649  0.9685234284502925  0.3918684120025181
  0.0833019290178479  0.0934017771177863  0.3917380462309737
  0.0832393326221329  0.2182414250649980  0.3922496255847619
  0.0832869660798043  0.3432844026695122  0.3923770518682608
  0.0833352632722179  0.4683414192935076  0.3923122041563706
  0.0835980472587082  0.5935269130665264  0.3926990146064406
  0.0833777924856483  0.7185776474107949  0.3916254249414506
  0.9584258695932425  0.7811601956520660  0.3913008787033906
  0.9584626281432777  0.9061224463341624  0.3917837078440612
  0.9584196872646663  0.0310440711911224  0.3917882062460661
  0.9583863229581512  0.1559416724523820  0.3920502769196871
  0.9582525987976318  0.2808781359997715  0.3920276790273413
  0.9585404048341392  0.4058831748246176  0.3910566546456774
  0.9585986113722954  0.5309492674203530  0.3911590794762169
  0.9586031965901914  0.6561585085977486  0.3911904811618678
  0.4563140719380973  0.6474176903476110  0.6057037687402314
  0.4929210996381717  0.5259983132868116  0.5617770226337864
  0.6279503373124147  0.4804669616678688  0.6081132704528214
  0.5738054010470180  0.4388990949833905  0.4964386216592228
  0.3968433726492533  0.6005890133053485  0.4996456350796790
  0.6731942371835636  0.5447762107321078  0.4998116290086577
  0.5982630579144144  0.6109008019325831  0.5894495750222619

  0.00000000E+00  0.00000000E+00  0.00000000E+00
  0.00000000E+00  0.00000000E+00  0.00000000E+00
  0.00000000E+00  0.00000000E+00  0.00000000E+00
  0.00000000E+00  0.00000000E+00  0.00000000E+00
  0.00000000E+00  0.00000000E+00  0.00000000E+00
  0.00000000E+00  0.00000000E+00  0.00000000E+00
  0.00000000E+00  0.00000000E+00  0.00000000E+00
  0.00000000E+00  0.00000000E+00  0.00000000E+00
  0.00000000E+00  0.00000000E+00  0.00000000E+00
  0.00000000E+00  0.00000000E+00  0.00000000E+00
  0.00000000E+00  0.00000000E+00  0.00000000E+00
  0.00000000E+00  0.00000000E+00  0.00000000E+00
  0.00000000E+00  0.00000000E+00  0.00000000E+00
  0.00000000E+00  0.00000000E+00  0.00000000E+00
  0.00000000E+00  0.00000000E+00  0.00000000E+00
  0.00000000E+00  0.00000000E+00  0.00000000E+00
  0.00000000E+00  0.00000000E+00  0.00000000E+00
  0.00000000E+00  0.00000000E+00  0.00000000E+00
  0.00000000E+00  0.00000000E+00  0.00000000E+00
  0.00000000E+00  0.00000000E+00  0.00000000E+00
  0.00000000E+00  0.00000000E+00  0.00000000E+00
  0.00000000E+00  0.00000000E+00  0.00000000E+00
  0.00000000E+00  0.00000000E+00  0.00000000E+00
  0.00000000E+00  0.00000000E+00  0.00000000E+00
  0.00000000E+00  0.00000000E+00  0.00000000E+00
  0.00000000E+00  0.00000000E+00  0.00000000E+00
  0.00000000E+00  0.00000000E+00  0.00000000E+00
  0.00000000E+00  0.00000000E+00  0.00000000E+00
  0.00000000E+00  0.00000000E+00  0.00000000E+00
  0.00000000E+00  0.00000000E+00  0.00000000E+00
  0.00000000E+00  0.00000000E+00  0.00000000E+00
  0.00000000E+00  0.00000000E+00  0.00000000E+00
  0.00000000E+00  0.00000000E+00  0.00000000E+00
  0.00000000E+00  0.00000000E+00  0.00000000E+00
  0.00000000E+00  0.00000000E+00  0.00000000E+00
  0.00000000E+00  0.00000000E+00  0.00000000E+00
  0.00000000E+00  0.00000000E+00  0.00000000E+00
  0.00000000E+00  0.00000000E+00  0.00000000E+00
  0.00000000E+00  0.00000000E+00  0.00000000E+00
  0.00000000E+00  0.00000000E+00  0.00000000E+00
  0.00000000E+00  0.00000000E+00  0.00000000E+00
  0.00000000E+00  0.00000000E+00  0.00000000E+00
  0.00000000E+00  0.00000000E+00  0.00000000E+00
  0.00000000E+00  0.00000000E+00  0.00000000E+00
  0.00000000E+00  0.00000000E+00  0.00000000E+00
  0.00000000E+00  0.00000000E+00  0.00000000E+00
  0.00000000E+00  0.00000000E+00  0.00000000E+00
  0.00000000E+00  0.00000000E+00  0.00000000E+00
  0.00000000E+00  0.00000000E+00  0.00000000E+00
  0.00000000E+00  0.00000000E+00  0.00000000E+00
  0.00000000E+00  0.00000000E+00  0.00000000E+00
  0.00000000E+00  0.00000000E+00  0.00000000E+00
  0.00000000E+00  0.00000000E+00  0.00000000E+00
  0.00000000E+00  0.00000000E+00  0.00000000E+00
  0.00000000E+00  0.00000000E+00  0.00000000E+00
  0.00000000E+00  0.00000000E+00  0.00000000E+00
  0.00000000E+00  0.00000000E+00  0.00000000E+00
  0.00000000E+00  0.00000000E+00  0.00000000E+00
  0.00000000E+00  0.00000000E+00  0.00000000E+00
  0.00000000E+00  0.00000000E+00  0.00000000E+00
  0.00000000E+00  0.00000000E+00  0.00000000E+00
  0.00000000E+00  0.00000000E+00  0.00000000E+00
  0.00000000E+00  0.00000000E+00  0.00000000E+00
  0.00000000E+00  0.00000000E+00  0.00000000E+00
  0.00000000E+00  0.00000000E+00  0.00000000E+00
  0.00000000E+00  0.00000000E+00  0.00000000E+00
  0.00000000E+00  0.00000000E+00  0.00000000E+00
  0.00000000E+00  0.00000000E+00  0.00000000E+00
  0.00000000E+00  0.00000000E+00  0.00000000E+00
  0.00000000E+00  0.00000000E+00  0.00000000E+00
  0.00000000E+00  0.00000000E+00  0.00000000E+00
  0.00000000E+00  0.00000000E+00  0.00000000E+00
  0.00000000E+00  0.00000000E+00  0.00000000E+00
  0.00000000E+00  0.00000000E+00  0.00000000E+00
  0.00000000E+00  0.00000000E+00  0.00000000E+00
  0.00000000E+00  0.00000000E+00  0.00000000E+00
  0.00000000E+00  0.00000000E+00  0.00000000E+00
  0.00000000E+00  0.00000000E+00  0.00000000E+00
  0.00000000E+00  0.00000000E+00  0.00000000E+00
  0.00000000E+00  0.00000000E+00  0.00000000E+00
  0.00000000E+00  0.00000000E+00  0.00000000E+00
  0.00000000E+00  0.00000000E+00  0.00000000E+00
  0.00000000E+00  0.00000000E+00  0.00000000E+00
  0.00000000E+00  0.00000000E+00  0.00000000E+00
  0.00000000E+00  0.00000000E+00  0.00000000E+00
  0.00000000E+00  0.00000000E+00  0.00000000E+00
  0.00000000E+00  0.00000000E+00  0.00000000E+00
  0.00000000E+00  0.00000000E+00  0.00000000E+00
  0.00000000E+00  0.00000000E+00  0.00000000E+00
  0.00000000E+00  0.00000000E+00  0.00000000E+00
  0.00000000E+00  0.00000000E+00  0.00000000E+00
  0.00000000E+00  0.00000000E+00  0.00000000E+00
  0.00000000E+00  0.00000000E+00  0.00000000E+00
  0.00000000E+00  0.00000000E+00  0.00000000E+00
  0.00000000E+00  0.00000000E+00  0.00000000E+00
  0.00000000E+00  0.00000000E+00  0.00000000E+00
  0.00000000E+00  0.00000000E+00  0.00000000E+00
  0.00000000E+00  0.00000000E+00  0.00000000E+00
  0.00000000E+00  0.00000000E+00  0.00000000E+00
  0.00000000E+00  0.00000000E+00  0.00000000E+00
  0.00000000E+00  0.00000000E+00  0.00000000E+00
  0.00000000E+00  0.00000000E+00  0.00000000E+00
  0.00000000E+00  0.00000000E+00  0.00000000E+00
  0.00000000E+00  0.00000000E+00  0.00000000E+00
  0.00000000E+00  0.00000000E+00  0.00000000E+00
  0.00000000E+00  0.00000000E+00  0.00000000E+00
  0.00000000E+00  0.00000000E+00  0.00000000E+00
  0.00000000E+00  0.00000000E+00  0.00000000E+00
  0.00000000E+00  0.00000000E+00  0.00000000E+00
  0.00000000E+00  0.00000000E+00  0.00000000E+00
  0.00000000E+00  0.00000000E+00  0.00000000E+00
  0.00000000E+00  0.00000000E+00  0.00000000E+00
  0.00000000E+00  0.00000000E+00  0.00000000E+00
  0.00000000E+00  0.00000000E+00  0.00000000E+00
  0.00000000E+00  0.00000000E+00  0.00000000E+00
  0.00000000E+00  0.00000000E+00  0.00000000E+00
  0.00000000E+00  0.00000000E+00  0.00000000E+00
  0.00000000E+00  0.00000000E+00  0.00000000E+00
  0.00000000E+00  0.00000000E+00  0.00000000E+00
  0.00000000E+00  0.00000000E+00  0.00000000E+00
  0.00000000E+00  0.00000000E+00  0.00000000E+00
  0.00000000E+00  0.00000000E+00  0.00000000E+00
  0.00000000E+00  0.00000000E+00  0.00000000E+00
  0.00000000E+00  0.00000000E+00  0.00000000E+00
  0.00000000E+00  0.00000000E+00  0.00000000E+00
  0.00000000E+00  0.00000000E+00  0.00000000E+00
  0.00000000E+00  0.00000000E+00  0.00000000E+00
  0.00000000E+00  0.00000000E+00  0.00000000E+00
  0.00000000E+00  0.00000000E+00  0.00000000E+00
  0.00000000E+00  0.00000000E+00  0.00000000E+00
  0.00000000E+00  0.00000000E+00  0.00000000E+00
  0.00000000E+00  0.00000000E+00  0.00000000E+00
  0.00000000E+00  0.00000000E+00  0.00000000E+00
  0.00000000E+00  0.00000000E+00  0.00000000E+00
  0.00000000E+00  0.00000000E+00  0.00000000E+00
