 C Pt                                   
   1.0000000000000000     
    17.0979999999999990    0.0000000000000000    0.0000000000000000
     0.0000000000000000   19.7420000000000009    0.0000000000000000
     0.0000000000000000    0.0000000000000000   20.0000000000000000
   C    Pt
   128     7
Direct
  0.9173360034011713  0.8436023784560033  0.3818672967511836
  0.9173504454840020  0.9684683411970325  0.3823645276016945
  0.9173663465248890  0.0933936094844346  0.3821800026110831
  0.9173105279025487  0.2181848024564621  0.3816786420851923
  0.9174001493397362  0.3432087573222903  0.3804000773595342
  0.9174277410720856  0.4683541935709857  0.3784947926134635
  0.9174994239604106  0.5934059565886490  0.3781465407477856
  0.9174703658534881  0.7186771840853240  0.3800847967026677
  0.7927337915552904  0.7812509554933982  0.3810486005378063
  0.7924423032445729  0.9061597055391905  0.3822392786600405
  0.7923194725435271  0.0309269873500194  0.3820135778634787
  0.7924053103355755  0.1558103027365274  0.3819445268362658
  0.7925404656930896  0.2807638523395018  0.3815464800316617
  0.7927206122579781  0.4057403071677383  0.3798081508398709
  0.7928227663744728  0.5310310917739841  0.3771529096025045
  0.7926731592099119  0.6562815081280263  0.3778240549160213
  0.6674016134304074  0.8438863151672863  0.3831154246314484
  0.6674433410120969  0.9685888302947718  0.3823540140082339
  0.6673961219802756  0.0934070132888486  0.3819944587206032
  0.6675000004082746  0.2182034148899085  0.3824066116577312
  0.6678407421126216  0.3431818081095025  0.3827362496782857
  0.6688342307402879  0.4684151492267213  0.3831563305485381
  0.6686984115297752  0.5939029916881136  0.3797606563291703
  0.6681441683684981  0.7191033136871779  0.3818658781892210
  0.5424775699478033  0.7818143579587578  0.3828188148335112
  0.5422960634722780  0.9062947142860063  0.3824285559851613
  0.5422555935075941  0.0310312956261999  0.3819326566200821
  0.5423307856870656  0.1556602755988618  0.3825124557077144
  0.5425279697032622  0.2804135426563808  0.3817781040793770
  0.5427452197094433  0.4045983252449104  0.3808356005734581
  0.5427162025502306  0.5312950796742990  0.3836989587709452
  0.5427844156989741  0.6569962922846133  0.3851829619120905
  0.4173161686780990  0.8436604412459819  0.3806946419250718
  0.4172766216284673  0.9684912984389406  0.3814951494179432
  0.4172865462337833  0.0933095744837974  0.3818771238898074
  0.4173126482348186  0.2180271427028680  0.3813159614998722
  0.4176257187258500  0.3426478460449339  0.3774700390204207
  0.4178136606976459  0.4682580280128694  0.3831580751082209
  0.4174263618249717  0.5934534837792570  0.3812795553380220
  0.4172027903581780  0.7187711751849781  0.3782589260730540
  0.2920744524998515  0.7810194839063284  0.3802498449357707
  0.2922564914523030  0.9059840056799531  0.3809004221943000
  0.2921665855730257  0.0308594028690970  0.3813562914718851
  0.2921649472470621  0.1556758690373770  0.3809907643656666
  0.2921809886102615  0.2805370995740083  0.3790956407172925
  0.2917629413289814  0.4048231456416506  0.3821720439270166
  0.2911558786819671  0.5305879905116463  0.3870390897177157
  0.2914752950809799  0.6568215147974330  0.3834007923510321
  0.1671687666585223  0.8435338972758480  0.3814872092416332
  0.1672970399353998  0.9683854885635694  0.3816857178168261
  0.1673100013013236  0.0933054626175254  0.3817041328797761
  0.1672009814704231  0.2181631134643939  0.3807583221625559
  0.1670502550804218  0.3428862455490608  0.3800037314447378
  0.1669830005465898  0.4680059093521981  0.3821202590570941
  0.1668808659935207  0.5934736204269581  0.3830241802011725
  0.1669703441378104  0.7186782978470109  0.3821997702318176
  0.0422444280630265  0.7810850774131897  0.3815994975554579
  0.0423175963298755  0.9060673268080250  0.3820953275328814
  0.0422606293886206  0.0308663011579953  0.3825035503889005
  0.0422390772873040  0.1556929619454140  0.3819566722987213
  0.0421672213928314  0.2806633743525230  0.3808737745480547
  0.0421973576128214  0.4056224769769789  0.3800731085990869
  0.0422381326064063  0.5307732680551109  0.3803778972570344
  0.0422083625209792  0.6559494840866000  0.3810109399285899
  0.8341563033159033  0.8437290998826942  0.3818464153619627
  0.8340318655243554  0.9685029654352174  0.3821832840189314
  0.8341058684471018  0.0933756538715231  0.3819852913712707
  0.8341220926027794  0.2182932176107271  0.3817714221242857
  0.8340889839620739  0.3432241768665658  0.3804416099709774
  0.8343773134143678  0.4683677483992372  0.3779620909126826
  0.8343664445555294  0.5935824026620750  0.3768977138171558
  0.8342296365868164  0.7188173403555375  0.3794586250987950
  0.7094136817038872  0.7814479682571860  0.3820028858361699
  0.7091420561754254  0.9062286300572705  0.3826410696296551
  0.7090881028907120  0.0310391718021320  0.3820179176534700
  0.7090452715763385  0.1557904284035498  0.3820247874214022
  0.7092418818549054  0.2808276972805461  0.3823131580296379
  0.7096515028814401  0.4057204699414143  0.3820726751862006
  0.7098199865547701  0.5311290947035670  0.3792247955995032
  0.7098506380324509  0.6564326805549102  0.3790123862641127
  0.5841746418162393  0.8440256280732583  0.3831292904106978
  0.5839592956762747  0.9686328754194218  0.3822554316675730
  0.5840601706554185  0.0933447107894293  0.3821094417198950
  0.5842165877696383  0.2180242002584722  0.3826765382308448
  0.5844491382769690  0.3427435762349946  0.3817562326029761
  0.5851128288198310  0.4677456855345847  0.3868076921606483
  0.5858982864350138  0.5943246367280469  0.3839090277174878
  0.5849346779040117  0.7197977691244669  0.3843631689377185
  0.4591815543547151  0.7813772525093999  0.3803239945345403
  0.4590293504470500  0.9061986230529030  0.3816527075236838
  0.4589440703586219  0.0309378526424679  0.3817875074465437
  0.4589304550283385  0.1556491790767347  0.3823076197704011
  0.4591640283058415  0.2803755087796093  0.3800548978275360
  0.4598316877774820  0.4044807141196350  0.3780468613416112
  0.4588726548285746  0.5313552890049965  0.3755400209905991
  0.4586182438344603  0.6571533240485237  0.3788352760422357
  0.3338666345995040  0.8436031784622127  0.3803332514172800
  0.3338821481666484  0.9684069739476374  0.3812195747800725
  0.3339339202988702  0.0932977977391824  0.3814375245307626
  0.3340301787287857  0.2180396987893569  0.3804096945960609
  0.3336848739009379  0.3427090589986709  0.3783386137305402
  0.3333475594759588  0.4676424742410510  0.3879396002872388
  0.3329889178199780  0.5936534716083522  0.3878171164641284
  0.3333868088961410  0.7187485907368577  0.3796369984947022
  0.2086995313592647  0.7810285452999434  0.3815057464518669
  0.2088787315289602  0.9060402889770202  0.3812191582973382
  0.2088584290463532  0.0308444554792375  0.3816106236048039
  0.2087713341674276  0.1557122004035844  0.3810340996269224
  0.2087659346077449  0.2805422540983272  0.3799061799904139
  0.2088160283532725  0.4053694449639742  0.3813659104194058
  0.2084917810316278  0.5306405083912685  0.3840043053006239
  0.2084902404939652  0.6562041045629698  0.3832102152851564
  0.0838880340960807  0.8435412198055129  0.3817854300541126
  0.0839413878312026  0.9684046830690273  0.3822134416388690
  0.0839195610569307  0.0933474600741600  0.3821667456357631
  0.0839373493140919  0.2182111371123992  0.3813363234331649
  0.0837444531226158  0.3430856155146296  0.3801667109607053
  0.0838893936876547  0.4681729344113228  0.3806749335100648
  0.0838761942415354  0.5933740349473792  0.3814324841956149
  0.0837686538571340  0.7185442516790188  0.3817174414084189
  0.9590152475282993  0.7811336583118831  0.3813380466846057
  0.9590276745800740  0.9060650082149020  0.3822344556939153
  0.9589800022455197  0.0309022905685064  0.3824837222011707
  0.9588768385201546  0.1557509872653227  0.3819954565867327
  0.9589171275424322  0.2806781419775423  0.3811556091968905
  0.9589972277382132  0.4057515108038470  0.3797370171015977
  0.9590978448194231  0.5308417708799116  0.3787981343121911
  0.9591051428116262  0.6560054928189987  0.3796522812443561
  0.4237932619764938  0.7049154170714369  0.5483697099884692
  0.3826520180458838  0.5913443463101242  0.4958685240391601
  0.4672951511759426  0.5919715962163914  0.5994983322034411
  0.4890211744302241  0.4647463379528609  0.5994970799505913
  0.5507513939371768  0.5022727244412150  0.4885977311573807
  0.5381371519934930  0.6389226373452207  0.4952114839549622
  0.4021214711039174  0.4610561080827577  0.4937084982462635

  0.00000000E+00  0.00000000E+00  0.00000000E+00
  0.00000000E+00  0.00000000E+00  0.00000000E+00
  0.00000000E+00  0.00000000E+00  0.00000000E+00
  0.00000000E+00  0.00000000E+00  0.00000000E+00
  0.00000000E+00  0.00000000E+00  0.00000000E+00
  0.00000000E+00  0.00000000E+00  0.00000000E+00
  0.00000000E+00  0.00000000E+00  0.00000000E+00
  0.00000000E+00  0.00000000E+00  0.00000000E+00
  0.00000000E+00  0.00000000E+00  0.00000000E+00
  0.00000000E+00  0.00000000E+00  0.00000000E+00
  0.00000000E+00  0.00000000E+00  0.00000000E+00
  0.00000000E+00  0.00000000E+00  0.00000000E+00
  0.00000000E+00  0.00000000E+00  0.00000000E+00
  0.00000000E+00  0.00000000E+00  0.00000000E+00
  0.00000000E+00  0.00000000E+00  0.00000000E+00
  0.00000000E+00  0.00000000E+00  0.00000000E+00
  0.00000000E+00  0.00000000E+00  0.00000000E+00
  0.00000000E+00  0.00000000E+00  0.00000000E+00
  0.00000000E+00  0.00000000E+00  0.00000000E+00
  0.00000000E+00  0.00000000E+00  0.00000000E+00
  0.00000000E+00  0.00000000E+00  0.00000000E+00
  0.00000000E+00  0.00000000E+00  0.00000000E+00
  0.00000000E+00  0.00000000E+00  0.00000000E+00
  0.00000000E+00  0.00000000E+00  0.00000000E+00
  0.00000000E+00  0.00000000E+00  0.00000000E+00
  0.00000000E+00  0.00000000E+00  0.00000000E+00
  0.00000000E+00  0.00000000E+00  0.00000000E+00
  0.00000000E+00  0.00000000E+00  0.00000000E+00
  0.00000000E+00  0.00000000E+00  0.00000000E+00
  0.00000000E+00  0.00000000E+00  0.00000000E+00
  0.00000000E+00  0.00000000E+00  0.00000000E+00
  0.00000000E+00  0.00000000E+00  0.00000000E+00
  0.00000000E+00  0.00000000E+00  0.00000000E+00
  0.00000000E+00  0.00000000E+00  0.00000000E+00
  0.00000000E+00  0.00000000E+00  0.00000000E+00
  0.00000000E+00  0.00000000E+00  0.00000000E+00
  0.00000000E+00  0.00000000E+00  0.00000000E+00
  0.00000000E+00  0.00000000E+00  0.00000000E+00
  0.00000000E+00  0.00000000E+00  0.00000000E+00
  0.00000000E+00  0.00000000E+00  0.00000000E+00
  0.00000000E+00  0.00000000E+00  0.00000000E+00
  0.00000000E+00  0.00000000E+00  0.00000000E+00
  0.00000000E+00  0.00000000E+00  0.00000000E+00
  0.00000000E+00  0.00000000E+00  0.00000000E+00
  0.00000000E+00  0.00000000E+00  0.00000000E+00
  0.00000000E+00  0.00000000E+00  0.00000000E+00
  0.00000000E+00  0.00000000E+00  0.00000000E+00
  0.00000000E+00  0.00000000E+00  0.00000000E+00
  0.00000000E+00  0.00000000E+00  0.00000000E+00
  0.00000000E+00  0.00000000E+00  0.00000000E+00
  0.00000000E+00  0.00000000E+00  0.00000000E+00
  0.00000000E+00  0.00000000E+00  0.00000000E+00
  0.00000000E+00  0.00000000E+00  0.00000000E+00
  0.00000000E+00  0.00000000E+00  0.00000000E+00
  0.00000000E+00  0.00000000E+00  0.00000000E+00
  0.00000000E+00  0.00000000E+00  0.00000000E+00
  0.00000000E+00  0.00000000E+00  0.00000000E+00
  0.00000000E+00  0.00000000E+00  0.00000000E+00
  0.00000000E+00  0.00000000E+00  0.00000000E+00
  0.00000000E+00  0.00000000E+00  0.00000000E+00
  0.00000000E+00  0.00000000E+00  0.00000000E+00
  0.00000000E+00  0.00000000E+00  0.00000000E+00
  0.00000000E+00  0.00000000E+00  0.00000000E+00
  0.00000000E+00  0.00000000E+00  0.00000000E+00
  0.00000000E+00  0.00000000E+00  0.00000000E+00
  0.00000000E+00  0.00000000E+00  0.00000000E+00
  0.00000000E+00  0.00000000E+00  0.00000000E+00
  0.00000000E+00  0.00000000E+00  0.00000000E+00
  0.00000000E+00  0.00000000E+00  0.00000000E+00
  0.00000000E+00  0.00000000E+00  0.00000000E+00
  0.00000000E+00  0.00000000E+00  0.00000000E+00
  0.00000000E+00  0.00000000E+00  0.00000000E+00
  0.00000000E+00  0.00000000E+00  0.00000000E+00
  0.00000000E+00  0.00000000E+00  0.00000000E+00
  0.00000000E+00  0.00000000E+00  0.00000000E+00
  0.00000000E+00  0.00000000E+00  0.00000000E+00
  0.00000000E+00  0.00000000E+00  0.00000000E+00
  0.00000000E+00  0.00000000E+00  0.00000000E+00
  0.00000000E+00  0.00000000E+00  0.00000000E+00
  0.00000000E+00  0.00000000E+00  0.00000000E+00
  0.00000000E+00  0.00000000E+00  0.00000000E+00
  0.00000000E+00  0.00000000E+00  0.00000000E+00
  0.00000000E+00  0.00000000E+00  0.00000000E+00
  0.00000000E+00  0.00000000E+00  0.00000000E+00
  0.00000000E+00  0.00000000E+00  0.00000000E+00
  0.00000000E+00  0.00000000E+00  0.00000000E+00
  0.00000000E+00  0.00000000E+00  0.00000000E+00
  0.00000000E+00  0.00000000E+00  0.00000000E+00
  0.00000000E+00  0.00000000E+00  0.00000000E+00
  0.00000000E+00  0.00000000E+00  0.00000000E+00
  0.00000000E+00  0.00000000E+00  0.00000000E+00
  0.00000000E+00  0.00000000E+00  0.00000000E+00
  0.00000000E+00  0.00000000E+00  0.00000000E+00
  0.00000000E+00  0.00000000E+00  0.00000000E+00
  0.00000000E+00  0.00000000E+00  0.00000000E+00
  0.00000000E+00  0.00000000E+00  0.00000000E+00
  0.00000000E+00  0.00000000E+00  0.00000000E+00
  0.00000000E+00  0.00000000E+00  0.00000000E+00
  0.00000000E+00  0.00000000E+00  0.00000000E+00
  0.00000000E+00  0.00000000E+00  0.00000000E+00
  0.00000000E+00  0.00000000E+00  0.00000000E+00
  0.00000000E+00  0.00000000E+00  0.00000000E+00
  0.00000000E+00  0.00000000E+00  0.00000000E+00
  0.00000000E+00  0.00000000E+00  0.00000000E+00
  0.00000000E+00  0.00000000E+00  0.00000000E+00
  0.00000000E+00  0.00000000E+00  0.00000000E+00
  0.00000000E+00  0.00000000E+00  0.00000000E+00
  0.00000000E+00  0.00000000E+00  0.00000000E+00
  0.00000000E+00  0.00000000E+00  0.00000000E+00
  0.00000000E+00  0.00000000E+00  0.00000000E+00
  0.00000000E+00  0.00000000E+00  0.00000000E+00
  0.00000000E+00  0.00000000E+00  0.00000000E+00
  0.00000000E+00  0.00000000E+00  0.00000000E+00
  0.00000000E+00  0.00000000E+00  0.00000000E+00
  0.00000000E+00  0.00000000E+00  0.00000000E+00
  0.00000000E+00  0.00000000E+00  0.00000000E+00
  0.00000000E+00  0.00000000E+00  0.00000000E+00
  0.00000000E+00  0.00000000E+00  0.00000000E+00
  0.00000000E+00  0.00000000E+00  0.00000000E+00
  0.00000000E+00  0.00000000E+00  0.00000000E+00
  0.00000000E+00  0.00000000E+00  0.00000000E+00
  0.00000000E+00  0.00000000E+00  0.00000000E+00
  0.00000000E+00  0.00000000E+00  0.00000000E+00
  0.00000000E+00  0.00000000E+00  0.00000000E+00
  0.00000000E+00  0.00000000E+00  0.00000000E+00
  0.00000000E+00  0.00000000E+00  0.00000000E+00
  0.00000000E+00  0.00000000E+00  0.00000000E+00
  0.00000000E+00  0.00000000E+00  0.00000000E+00
  0.00000000E+00  0.00000000E+00  0.00000000E+00
  0.00000000E+00  0.00000000E+00  0.00000000E+00
  0.00000000E+00  0.00000000E+00  0.00000000E+00
  0.00000000E+00  0.00000000E+00  0.00000000E+00
  0.00000000E+00  0.00000000E+00  0.00000000E+00
  0.00000000E+00  0.00000000E+00  0.00000000E+00
  0.00000000E+00  0.00000000E+00  0.00000000E+00
