 C Pt                                   
   1.0000000000000000     
    17.0979999999999990    0.0000000000000000    0.0000000000000000
     0.0000000000000000   19.7420000000000009    0.0000000000000000
     0.0000000000000000    0.0000000000000000   20.0000000000000000
   C    Pt
   128     7
Direct
  0.9164899851548537  0.8436135162612197  0.3967407897228510
  0.9164475121484195  0.9686413164213741  0.3967814132900175
  0.9165067019253781  0.0935090591247973  0.3965330553582776
  0.9165842200667224  0.2185185286518863  0.3969059387679288
  0.9166350523048667  0.3434848471628316  0.3969332474351881
  0.9167164777657546  0.4686003189791808  0.3952097454948996
  0.9168062517452445  0.5937100432000562  0.3946813338421039
  0.9165963899491899  0.7187576669020408  0.3961907229026107
  0.7916607030175744  0.7812636487953619  0.3958925741853860
  0.7915605598192736  0.9061376327659106  0.3968077121984226
  0.7915386294361980  0.0310788269464024  0.3967274250709703
  0.7914537959456216  0.1560390832502599  0.3966884077936726
  0.7917089586145215  0.2810187261484180  0.3977193740734942
  0.7924151749274265  0.4062260827742600  0.3984370462994122
  0.7922853458056445  0.5313626899274663  0.3900085992428949
  0.7918913237745373  0.6563793755504201  0.3923501273598780
  0.6665624904378240  0.8436790643464787  0.3973274563950657
  0.6664485143689460  0.9685760424153333  0.3967883388117021
  0.6664951959290401  0.0934514726224090  0.3964528935935766
  0.6665712765886137  0.2182951781231950  0.3966537561498967
  0.6665641584902456  0.3428173122188465  0.3985814002719050
  0.6666046135398663  0.4697415755558964  0.3961332422315969
  0.6682631942217636  0.5941106413620869  0.3876548642469254
  0.6667709949873208  0.7189213392302528  0.3954480337904963
  0.5417620019591353  0.7811131690658171  0.3992467208943600
  0.5415183701663077  0.9060254381923853  0.3967949911885316
  0.5413925014390564  0.0309341478262694  0.3966379144947818
  0.5413133782507259  0.1557640925278770  0.3962292963587684
  0.5415816126502750  0.2804674530385420  0.3952108194300850
  0.5419761741114394  0.4059057179261567  0.3961543993717494
  0.5418636799039078  0.5304536233657344  0.3843836726852445
  0.5419851637770402  0.6559601186475392  0.4035619657441714
  0.4165374622596123  0.8433991020741950  0.3968761373473447
  0.4163916350934844  0.9684242431057565  0.3967153035814699
  0.4163861690654748  0.0933559482643066  0.3968620607556487
  0.4163352302924365  0.2181389864566163  0.3955833132085489
  0.4155788394829206  0.3423306259928049  0.3949805873355400
  0.4146216287260422  0.4680304803348707  0.3898820448842119
  0.4154779840146229  0.5937637595360282  0.3996471444859442
  0.4165095502951607  0.7184697374330961  0.3982715825512502
  0.2913672434310311  0.7808975226147966  0.3962103332622946
  0.2914489849041814  0.9058262675776261  0.3965619211424249
  0.2913947566832670  0.0308526666547948  0.3970367090465465
  0.2912354533726131  0.1558139915589869  0.3970768685668147
  0.2910841238968254  0.2805755848848989  0.3956984949347111
  0.2908446126038458  0.4055459736308835  0.3920166500449944
  0.2902678268383961  0.5311146975682476  0.3905335235334103
  0.2906832839492201  0.6562023180110729  0.3952368720529610
  0.1663287511582995  0.8435048087381967  0.3969663243909484
  0.1663843844934270  0.9683895237703254  0.3967112842167966
  0.1663953355507103  0.0933722829054610  0.3968193055342777
  0.1663253850322399  0.2182588194428857  0.3972059502555374
  0.1662069079479531  0.3432522013698679  0.3965007616564927
  0.1660641940308667  0.4683917210793994  0.3944187017410807
  0.1660410494155792  0.5936890000742616  0.3952334073028400
  0.1661401864721195  0.7185947599587689  0.3966595584183532
  0.0413387145680161  0.7811654474325430  0.3973270900982101
  0.0414510239166554  0.9060281902567878  0.3969223079103171
  0.0414349110305422  0.0309768085407061  0.3965055578018751
  0.0413936371627717  0.1559027976341256  0.3967328813853093
  0.0414269196925666  0.2808753332968350  0.3973851126521107
  0.0415242879876864  0.4058748570184100  0.3970134824948239
  0.0413650318820295  0.5310479261154908  0.3960898405671950
  0.0413687824069726  0.6561534181187978  0.3969554056240590
  0.8332395996330961  0.8436863977965491  0.3965270456043174
  0.8331988292241543  0.9686769657823706  0.3968425488053596
  0.8332031183041981  0.0935678186396545  0.3965750941922976
  0.8331360482787376  0.2186835396399036  0.3970364904263648
  0.8334651688761681  0.3436730197175123  0.3977388653741732
  0.8337581210978453  0.4686376512698006  0.3942343097535378
  0.8337149119057383  0.5938634202586077  0.3919459252033409
  0.8334664240836038  0.7188763366030436  0.3951437526199959
  0.7083723382311202  0.7813160545783938  0.3962704509126101
  0.7082139195039877  0.9061777968810171  0.3970267408816254
  0.7081791965964875  0.0310567543074163  0.3966357086389996
  0.7081857463814831  0.1559524014356844  0.3965668023183948
  0.7083414340699175  0.2807542014280333  0.3976075945938720
  0.7084728446664903  0.4062868523757255  0.4026371612163688
  0.7097369731036050  0.5321358543286028  0.3873673784783022
  0.7088164840581728  0.6565203163904464  0.3907635080942565
  0.5833095685707688  0.8436451294588676  0.3976317581252629
  0.5831540105263632  0.9685534533450602  0.3966489636148841
  0.5830985662108180  0.0933957094432414  0.3964594259776242
  0.5831719585974812  0.2182035887713513  0.3960923428949371
  0.5837040242667834  0.3424832609378731  0.3961898705270107
  0.5829583658519518  0.4692257920319243  0.3862514471078302
  0.5841815361390374  0.5927723250237701  0.3956502997850530
  0.5838701232555477  0.7189413536176920  0.4000018665953683
  0.4583516121434885  0.7811722841978498  0.3983160859448563
  0.4581489321624260  0.9059933031010251  0.3966739315560825
  0.4580565355747159  0.0308914764839462  0.3968082329503064
  0.4580800178692356  0.1557503006090931  0.3962980298774680
  0.4578961002524088  0.2804361481007518  0.3946614823621611
  0.4572796340164860  0.4054670579489045  0.3972031009506878
  0.4579439810839750  0.5305510727494709  0.3927418261101144
  0.4578776906144091  0.6566723475030994  0.4009107634033909
  0.3331192609539269  0.8434786542622545  0.3964114702331741
  0.3330833412129049  0.9684311999868733  0.3968275580536623
  0.3329763667889398  0.0933872434968460  0.3970594316958491
  0.3328709324564270  0.2182194721884219  0.3963651671415220
  0.3326951164952783  0.3430077259530649  0.3939816611116896
  0.3320337382063539  0.4681530307940554  0.3891383021161108
  0.3315146129794552  0.5935767375110892  0.3945307801753279
  0.3328506390593846  0.7184852466896557  0.3961712162676334
  0.2079481313567680  0.7810569059311748  0.3966374051178460
  0.2080645679489933  0.9059605039542996  0.3967452215924597
  0.2080010483835927  0.0309215774066623  0.3968370468439913
  0.2080655676161070  0.1558633984894558  0.3971217314635543
  0.2078480206423872  0.2807750857243862  0.3966278311996193
  0.2078124844875987  0.4057425710886582  0.3942854978025018
  0.2074526419470425  0.5310597376921262  0.3928389042682932
  0.2075276719320631  0.6561759282863749  0.3954489403809603
  0.0830528236677939  0.8436013774473394  0.3971940625378109
  0.0830865849493949  0.9685202693314596  0.3966514077287417
  0.0830716661323513  0.0934782298394688  0.3965572957029727
  0.0830564634459822  0.2183816924830891  0.3971994686616507
  0.0831332000831101  0.3433540352187148  0.3973681553472680
  0.0830777878013819  0.4684752327873020  0.3962105109906721
  0.0828983694807405  0.5936297294816960  0.3964348402997436
  0.0829454292818955  0.7186737692009224  0.3972607470357304
  0.9581462685873909  0.7812433809732661  0.3969150333011277
  0.9581650990353143  0.9061079335532256  0.3968540898335554
  0.9581196037611157  0.0311213545899096  0.3965950939262596
  0.9581941189750868  0.1560592803150149  0.3966392060565123
  0.9582332360434790  0.2809936063388689  0.3970768102303631
  0.9583414761338225  0.4059833634701470  0.3966772835162946
  0.9583407566881951  0.5311674833169200  0.3951823383000139
  0.9582349702037640  0.6562378782629004  0.3961622942663781
  0.5069279747801366  0.4220883099915388  0.5008316406860625
  0.6642955730571548  0.4551778503788134  0.5055711557386298
  0.4577522148613568  0.4764550898048316  0.6099001619206950
  0.5735275201389602  0.5944873378841481  0.5061174605439495
  0.5972256637179461  0.5156102657870892  0.6031172789727028
  0.4346719062885389  0.5416935383947808  0.5012792344928406
  0.7140042830580506  0.5731903886449887  0.5497799960676421

  0.00000000E+00  0.00000000E+00  0.00000000E+00
  0.00000000E+00  0.00000000E+00  0.00000000E+00
  0.00000000E+00  0.00000000E+00  0.00000000E+00
  0.00000000E+00  0.00000000E+00  0.00000000E+00
  0.00000000E+00  0.00000000E+00  0.00000000E+00
  0.00000000E+00  0.00000000E+00  0.00000000E+00
  0.00000000E+00  0.00000000E+00  0.00000000E+00
  0.00000000E+00  0.00000000E+00  0.00000000E+00
  0.00000000E+00  0.00000000E+00  0.00000000E+00
  0.00000000E+00  0.00000000E+00  0.00000000E+00
  0.00000000E+00  0.00000000E+00  0.00000000E+00
  0.00000000E+00  0.00000000E+00  0.00000000E+00
  0.00000000E+00  0.00000000E+00  0.00000000E+00
  0.00000000E+00  0.00000000E+00  0.00000000E+00
  0.00000000E+00  0.00000000E+00  0.00000000E+00
  0.00000000E+00  0.00000000E+00  0.00000000E+00
  0.00000000E+00  0.00000000E+00  0.00000000E+00
  0.00000000E+00  0.00000000E+00  0.00000000E+00
  0.00000000E+00  0.00000000E+00  0.00000000E+00
  0.00000000E+00  0.00000000E+00  0.00000000E+00
  0.00000000E+00  0.00000000E+00  0.00000000E+00
  0.00000000E+00  0.00000000E+00  0.00000000E+00
  0.00000000E+00  0.00000000E+00  0.00000000E+00
  0.00000000E+00  0.00000000E+00  0.00000000E+00
  0.00000000E+00  0.00000000E+00  0.00000000E+00
  0.00000000E+00  0.00000000E+00  0.00000000E+00
  0.00000000E+00  0.00000000E+00  0.00000000E+00
  0.00000000E+00  0.00000000E+00  0.00000000E+00
  0.00000000E+00  0.00000000E+00  0.00000000E+00
  0.00000000E+00  0.00000000E+00  0.00000000E+00
  0.00000000E+00  0.00000000E+00  0.00000000E+00
  0.00000000E+00  0.00000000E+00  0.00000000E+00
  0.00000000E+00  0.00000000E+00  0.00000000E+00
  0.00000000E+00  0.00000000E+00  0.00000000E+00
  0.00000000E+00  0.00000000E+00  0.00000000E+00
  0.00000000E+00  0.00000000E+00  0.00000000E+00
  0.00000000E+00  0.00000000E+00  0.00000000E+00
  0.00000000E+00  0.00000000E+00  0.00000000E+00
  0.00000000E+00  0.00000000E+00  0.00000000E+00
  0.00000000E+00  0.00000000E+00  0.00000000E+00
  0.00000000E+00  0.00000000E+00  0.00000000E+00
  0.00000000E+00  0.00000000E+00  0.00000000E+00
  0.00000000E+00  0.00000000E+00  0.00000000E+00
  0.00000000E+00  0.00000000E+00  0.00000000E+00
  0.00000000E+00  0.00000000E+00  0.00000000E+00
  0.00000000E+00  0.00000000E+00  0.00000000E+00
  0.00000000E+00  0.00000000E+00  0.00000000E+00
  0.00000000E+00  0.00000000E+00  0.00000000E+00
  0.00000000E+00  0.00000000E+00  0.00000000E+00
  0.00000000E+00  0.00000000E+00  0.00000000E+00
  0.00000000E+00  0.00000000E+00  0.00000000E+00
  0.00000000E+00  0.00000000E+00  0.00000000E+00
  0.00000000E+00  0.00000000E+00  0.00000000E+00
  0.00000000E+00  0.00000000E+00  0.00000000E+00
  0.00000000E+00  0.00000000E+00  0.00000000E+00
  0.00000000E+00  0.00000000E+00  0.00000000E+00
  0.00000000E+00  0.00000000E+00  0.00000000E+00
  0.00000000E+00  0.00000000E+00  0.00000000E+00
  0.00000000E+00  0.00000000E+00  0.00000000E+00
  0.00000000E+00  0.00000000E+00  0.00000000E+00
  0.00000000E+00  0.00000000E+00  0.00000000E+00
  0.00000000E+00  0.00000000E+00  0.00000000E+00
  0.00000000E+00  0.00000000E+00  0.00000000E+00
  0.00000000E+00  0.00000000E+00  0.00000000E+00
  0.00000000E+00  0.00000000E+00  0.00000000E+00
  0.00000000E+00  0.00000000E+00  0.00000000E+00
  0.00000000E+00  0.00000000E+00  0.00000000E+00
  0.00000000E+00  0.00000000E+00  0.00000000E+00
  0.00000000E+00  0.00000000E+00  0.00000000E+00
  0.00000000E+00  0.00000000E+00  0.00000000E+00
  0.00000000E+00  0.00000000E+00  0.00000000E+00
  0.00000000E+00  0.00000000E+00  0.00000000E+00
  0.00000000E+00  0.00000000E+00  0.00000000E+00
  0.00000000E+00  0.00000000E+00  0.00000000E+00
  0.00000000E+00  0.00000000E+00  0.00000000E+00
  0.00000000E+00  0.00000000E+00  0.00000000E+00
  0.00000000E+00  0.00000000E+00  0.00000000E+00
  0.00000000E+00  0.00000000E+00  0.00000000E+00
  0.00000000E+00  0.00000000E+00  0.00000000E+00
  0.00000000E+00  0.00000000E+00  0.00000000E+00
  0.00000000E+00  0.00000000E+00  0.00000000E+00
  0.00000000E+00  0.00000000E+00  0.00000000E+00
  0.00000000E+00  0.00000000E+00  0.00000000E+00
  0.00000000E+00  0.00000000E+00  0.00000000E+00
  0.00000000E+00  0.00000000E+00  0.00000000E+00
  0.00000000E+00  0.00000000E+00  0.00000000E+00
  0.00000000E+00  0.00000000E+00  0.00000000E+00
  0.00000000E+00  0.00000000E+00  0.00000000E+00
  0.00000000E+00  0.00000000E+00  0.00000000E+00
  0.00000000E+00  0.00000000E+00  0.00000000E+00
  0.00000000E+00  0.00000000E+00  0.00000000E+00
  0.00000000E+00  0.00000000E+00  0.00000000E+00
  0.00000000E+00  0.00000000E+00  0.00000000E+00
  0.00000000E+00  0.00000000E+00  0.00000000E+00
  0.00000000E+00  0.00000000E+00  0.00000000E+00
  0.00000000E+00  0.00000000E+00  0.00000000E+00
  0.00000000E+00  0.00000000E+00  0.00000000E+00
  0.00000000E+00  0.00000000E+00  0.00000000E+00
  0.00000000E+00  0.00000000E+00  0.00000000E+00
  0.00000000E+00  0.00000000E+00  0.00000000E+00
  0.00000000E+00  0.00000000E+00  0.00000000E+00
  0.00000000E+00  0.00000000E+00  0.00000000E+00
  0.00000000E+00  0.00000000E+00  0.00000000E+00
  0.00000000E+00  0.00000000E+00  0.00000000E+00
  0.00000000E+00  0.00000000E+00  0.00000000E+00
  0.00000000E+00  0.00000000E+00  0.00000000E+00
  0.00000000E+00  0.00000000E+00  0.00000000E+00
  0.00000000E+00  0.00000000E+00  0.00000000E+00
  0.00000000E+00  0.00000000E+00  0.00000000E+00
  0.00000000E+00  0.00000000E+00  0.00000000E+00
  0.00000000E+00  0.00000000E+00  0.00000000E+00
  0.00000000E+00  0.00000000E+00  0.00000000E+00
  0.00000000E+00  0.00000000E+00  0.00000000E+00
  0.00000000E+00  0.00000000E+00  0.00000000E+00
  0.00000000E+00  0.00000000E+00  0.00000000E+00
  0.00000000E+00  0.00000000E+00  0.00000000E+00
  0.00000000E+00  0.00000000E+00  0.00000000E+00
  0.00000000E+00  0.00000000E+00  0.00000000E+00
  0.00000000E+00  0.00000000E+00  0.00000000E+00
  0.00000000E+00  0.00000000E+00  0.00000000E+00
  0.00000000E+00  0.00000000E+00  0.00000000E+00
  0.00000000E+00  0.00000000E+00  0.00000000E+00
  0.00000000E+00  0.00000000E+00  0.00000000E+00
  0.00000000E+00  0.00000000E+00  0.00000000E+00
  0.00000000E+00  0.00000000E+00  0.00000000E+00
  0.00000000E+00  0.00000000E+00  0.00000000E+00
  0.00000000E+00  0.00000000E+00  0.00000000E+00
  0.00000000E+00  0.00000000E+00  0.00000000E+00
  0.00000000E+00  0.00000000E+00  0.00000000E+00
  0.00000000E+00  0.00000000E+00  0.00000000E+00
  0.00000000E+00  0.00000000E+00  0.00000000E+00
  0.00000000E+00  0.00000000E+00  0.00000000E+00
  0.00000000E+00  0.00000000E+00  0.00000000E+00
  0.00000000E+00  0.00000000E+00  0.00000000E+00
  0.00000000E+00  0.00000000E+00  0.00000000E+00
