 C Pt                                   
   1.0000000000000000     
    17.0979999999999990    0.0000000000000000    0.0000000000000000
     0.0000000000000000   19.7420000000000009    0.0000000000000000
     0.0000000000000000    0.0000000000000000   20.0000000000000000
   C    Pt
   128     7
Direct
  0.9175144556470740  0.8435564836631587  0.3933999529196724
  0.9174023434318119  0.9684722617895952  0.3950980107074623
  0.9173316747629519  0.0934067492445121  0.3945909183399078
  0.9172606484163498  0.2183170534137070  0.3939278043778975
  0.9175300603570488  0.3432541458188102  0.3945109268102728
  0.9178362383463951  0.4683716681258305  0.3937879775128932
  0.9181603109985411  0.5935216361942898  0.3896499904190527
  0.9178738067905038  0.7185982706263442  0.3905124813129769
  0.7926957153457874  0.7812294509225105  0.3890097877279439
  0.7923890329455925  0.9060594472971429  0.3933707164060634
  0.7923669859544070  0.0308758373691017  0.3949896972531805
  0.7923864380774891  0.1559318096839722  0.3938116010109420
  0.7923202137788921  0.2808383482897048  0.3941297002413170
  0.7926191875407752  0.4056951479646057  0.3970643743556346
  0.7942700756061192  0.5311633893115385  0.3928490798471245
  0.7932750140648335  0.6562399306739507  0.3861563846956229
  0.6673403936273063  0.8437907266968550  0.3905135492095416
  0.6674338843355080  0.9685359103398842  0.3942839995194451
  0.6672918459978691  0.0934884959864100  0.3943676145078460
  0.6672697056283358  0.2182588942206674  0.3926726475691173
  0.6676333248149569  0.3432290849555134  0.3951061362349362
  0.6677060178942087  0.4681027061947094  0.4043280791972425
  0.6674828610774015  0.5937924397934363  0.3883260055779001
  0.6676624555921982  0.7193129199466639  0.3854270300034647
  0.5422550788903043  0.7815333436737117  0.3919090736636098
  0.5421446709849882  0.9061892262798297  0.3928400649317187
  0.5422976026507643  0.0309756090372683  0.3946304320483014
  0.5423328883186496  0.1559592463598932  0.3933763814361046
  0.5421527742707438  0.2806888143195491  0.3914807718750691
  0.5418161698893165  0.4049513114544139  0.3919983761275440
  0.5425956197884129  0.5317153019574679  0.3871273794604895
  0.5426703566470518  0.6560929869358945  0.3956509533950114
  0.4170208974967980  0.8437656857563157  0.3934357530360552
  0.4172563431976973  0.9684964782581774  0.3938935467114866
  0.4171745788075357  0.0934294317866967  0.3946810061064980
  0.4172096607279088  0.2182219677403473  0.3928424329352322
  0.4170260953556777  0.3429717955819250  0.3901001332822421
  0.4163299819315326  0.4673991191599242  0.3918718891579283
  0.4160485550108146  0.5926118893166439  0.4067384191866930
  0.4163907020060981  0.7197366245535184  0.4005161551517996
  0.2921934529088582  0.7812599511626386  0.3951400367804540
  0.2922428091002262  0.9061651620895388  0.3938665349281578
  0.2922809448438360  0.0309093484333724  0.3947852220110586
  0.2922365773787640  0.1557968930876942  0.3946527509408209
  0.2920912324531547  0.2807179771945986  0.3932789842262155
  0.2919785675173268  0.4055180544109689  0.3915980205098991
  0.2918241511598602  0.5307352833508628  0.3939508050405506
  0.2919820929071032  0.6558480473965699  0.3980392170076235
  0.1672981528327283  0.8435425277954581  0.3941684528970913
  0.1673362786575892  0.9686125999495349  0.3948093055968381
  0.1672827475478368  0.0933899541242038  0.3949320617443521
  0.1671898422487522  0.2182108121625212  0.3946574304219604
  0.1671956001717738  0.3432234246988313  0.3938727436700818
  0.1672119992239873  0.4681546806880844  0.3925628665737542
  0.1673394594916632  0.5934057137599160  0.3930981378959155
  0.1673269748052065  0.7186069366393862  0.3937998486874977
  0.0425156068395941  0.7810990320770412  0.3936031637172173
  0.0423222671614619  0.9060796298110636  0.3949845031363447
  0.0423487912272063  0.0309041876064149  0.3949830927158813
  0.0423382377366200  0.1558229025274727  0.3943871931524737
  0.0421969498709141  0.2808218989130670  0.3943775133809211
  0.0423990276569175  0.4056761425861905  0.3941731714380351
  0.0426759094720764  0.5308717161052494  0.3927195329586790
  0.0426547935118808  0.6560427652276366  0.3922713533543914
  0.8342482523539125  0.8436091893792926  0.3920388772363206
  0.8339083752178978  0.9685192389207272  0.3948331876129679
  0.8339349821895582  0.0934517481386559  0.3945814644283076
  0.8340065704067209  0.2182754912910415  0.3936885957521614
  0.8341118154540439  0.3433203583046407  0.3951008356189014
  0.8347444400323655  0.4685689613109627  0.3950274990981169
  0.8353714683939238  0.5934580125499468  0.3878321761152509
  0.8347230820004580  0.7187996944401432  0.3881427380340350
  0.7093620359269328  0.7814718305262116  0.3876573389924035
  0.7090471628406375  0.9061359684540778  0.3928605247020643
  0.7088973070504464  0.0308988011607073  0.3949190429006380
  0.7089028302131285  0.1559267622540426  0.3934729049838626
  0.7091325098163104  0.2808589818308345  0.3935549620912678
  0.7097011672963470  0.4050462458728375  0.3993860787697523
  0.7105562194770475  0.5320218677729972  0.3985992669155278
  0.7100043519230437  0.6568532388202358  0.3851481762695345
  0.5840107619445780  0.8437591649744591  0.3912568833488944
  0.5838130349898084  0.9685098632827273  0.3940633689627897
  0.5838518125349441  0.0934351085148397  0.3943456129467579
  0.5839493435289497  0.2182529908420711  0.3923348493511482
  0.5838338324242877  0.3432290398427112  0.3925608912247017
  0.5837312379608188  0.4682024360602092  0.3975501835741391
  0.5828026375592842  0.5924621756799024  0.3828904063350885
  0.5844009965376746  0.7194702033796539  0.3896140617510248
  0.4585065334581470  0.7815171501666756  0.3948961226337497
  0.4589718241526706  0.9062519566526400  0.3929756584255746
  0.4588594334571712  0.0309872381107270  0.3945925969053054
  0.4587800463895453  0.1558220388661060  0.3937192730954984
  0.4589330555416609  0.2806356048716395  0.3912595549302627
  0.4586074140987115  0.4053199428124099  0.3894079827492838
  0.4584691319693788  0.5302249755414946  0.3982801495561714
  0.4589724679971030  0.6569551772564703  0.4073643067496067
  0.3337960947155844  0.8436753802510970  0.3940198123399468
  0.3337167692250701  0.9685726530191248  0.3941472001133903
  0.3338856026035112  0.0934716356387993  0.3948755572818544
  0.3339046254759304  0.2181824677031628  0.3936545190521094
  0.3337332087141521  0.3430672958629274  0.3916288864248764
  0.3335537208197045  0.4680277940978972  0.3919051040708910
  0.3325324974131080  0.5931942435814382  0.3997247523326756
  0.3338160666374622  0.7189161841816832  0.3985249047589783
  0.2089075383940305  0.7812282662975014  0.3941336599003997
  0.2088955398530949  0.9060967821522777  0.3943082666430285
  0.2087528319058152  0.0309073498330061  0.3949120736401679
  0.2088115740571181  0.1558896012271163  0.3948168553787789
  0.2089374520330972  0.2806983071694432  0.3941272558460799
  0.2088125912425096  0.4056014871537414  0.3927479537926673
  0.2088191118501640  0.5307780871201468  0.3926473167436618
  0.2090232777382925  0.6559859064175523  0.3944449961488287
  0.0841688187412773  0.8435752226142020  0.3944182212762701
  0.0838536425707209  0.9685546096280447  0.3950662858055303
  0.0838070549805992  0.0934419507700500  0.3947426898612520
  0.0838898909934817  0.2182919360049820  0.3944766274096873
  0.0840360407700905  0.3432496053878668  0.3943363666526596
  0.0841761024881682  0.4682830642868525  0.3933202622212330
  0.0842440285748446  0.5934388004360953  0.3924590459348165
  0.0843602161661556  0.7186276440105709  0.3931807827925737
  0.9593216924317897  0.7811136072728584  0.3927000579000314
  0.9590761013957039  0.9060831756453570  0.3948563783178424
  0.9588634332578700  0.0309740902171601  0.3950084210892228
  0.9588271843337292  0.1558426605964124  0.3941653776808363
  0.9590182690874469  0.2808414767245878  0.3941566715998409
  0.9593032006214179  0.4058072822686320  0.3944795407511646
  0.9595710723404924  0.5309130967481270  0.3922036241439787
  0.9596241452436529  0.6561555721745174  0.3905907266068356
  0.4603887254459182  0.5442572154437353  0.5078352812933451
  0.5278447598429524  0.6609081250899178  0.5017011282848820
  0.6857356529250358  0.5939686706177006  0.4944148085760536
  0.4903267635974955  0.4305028423285052  0.5699550033330711
  0.5505441353877097  0.5410092804456210  0.6110489074916985
  0.6068534498070178  0.4845341178547143  0.5064867023095946
  0.6283807195970709  0.6508020835793971  0.5974002040885230

  0.00000000E+00  0.00000000E+00  0.00000000E+00
  0.00000000E+00  0.00000000E+00  0.00000000E+00
  0.00000000E+00  0.00000000E+00  0.00000000E+00
  0.00000000E+00  0.00000000E+00  0.00000000E+00
  0.00000000E+00  0.00000000E+00  0.00000000E+00
  0.00000000E+00  0.00000000E+00  0.00000000E+00
  0.00000000E+00  0.00000000E+00  0.00000000E+00
  0.00000000E+00  0.00000000E+00  0.00000000E+00
  0.00000000E+00  0.00000000E+00  0.00000000E+00
  0.00000000E+00  0.00000000E+00  0.00000000E+00
  0.00000000E+00  0.00000000E+00  0.00000000E+00
  0.00000000E+00  0.00000000E+00  0.00000000E+00
  0.00000000E+00  0.00000000E+00  0.00000000E+00
  0.00000000E+00  0.00000000E+00  0.00000000E+00
  0.00000000E+00  0.00000000E+00  0.00000000E+00
  0.00000000E+00  0.00000000E+00  0.00000000E+00
  0.00000000E+00  0.00000000E+00  0.00000000E+00
  0.00000000E+00  0.00000000E+00  0.00000000E+00
  0.00000000E+00  0.00000000E+00  0.00000000E+00
  0.00000000E+00  0.00000000E+00  0.00000000E+00
  0.00000000E+00  0.00000000E+00  0.00000000E+00
  0.00000000E+00  0.00000000E+00  0.00000000E+00
  0.00000000E+00  0.00000000E+00  0.00000000E+00
  0.00000000E+00  0.00000000E+00  0.00000000E+00
  0.00000000E+00  0.00000000E+00  0.00000000E+00
  0.00000000E+00  0.00000000E+00  0.00000000E+00
  0.00000000E+00  0.00000000E+00  0.00000000E+00
  0.00000000E+00  0.00000000E+00  0.00000000E+00
  0.00000000E+00  0.00000000E+00  0.00000000E+00
  0.00000000E+00  0.00000000E+00  0.00000000E+00
  0.00000000E+00  0.00000000E+00  0.00000000E+00
  0.00000000E+00  0.00000000E+00  0.00000000E+00
  0.00000000E+00  0.00000000E+00  0.00000000E+00
  0.00000000E+00  0.00000000E+00  0.00000000E+00
  0.00000000E+00  0.00000000E+00  0.00000000E+00
  0.00000000E+00  0.00000000E+00  0.00000000E+00
  0.00000000E+00  0.00000000E+00  0.00000000E+00
  0.00000000E+00  0.00000000E+00  0.00000000E+00
  0.00000000E+00  0.00000000E+00  0.00000000E+00
  0.00000000E+00  0.00000000E+00  0.00000000E+00
  0.00000000E+00  0.00000000E+00  0.00000000E+00
  0.00000000E+00  0.00000000E+00  0.00000000E+00
  0.00000000E+00  0.00000000E+00  0.00000000E+00
  0.00000000E+00  0.00000000E+00  0.00000000E+00
  0.00000000E+00  0.00000000E+00  0.00000000E+00
  0.00000000E+00  0.00000000E+00  0.00000000E+00
  0.00000000E+00  0.00000000E+00  0.00000000E+00
  0.00000000E+00  0.00000000E+00  0.00000000E+00
  0.00000000E+00  0.00000000E+00  0.00000000E+00
  0.00000000E+00  0.00000000E+00  0.00000000E+00
  0.00000000E+00  0.00000000E+00  0.00000000E+00
  0.00000000E+00  0.00000000E+00  0.00000000E+00
  0.00000000E+00  0.00000000E+00  0.00000000E+00
  0.00000000E+00  0.00000000E+00  0.00000000E+00
  0.00000000E+00  0.00000000E+00  0.00000000E+00
  0.00000000E+00  0.00000000E+00  0.00000000E+00
  0.00000000E+00  0.00000000E+00  0.00000000E+00
  0.00000000E+00  0.00000000E+00  0.00000000E+00
  0.00000000E+00  0.00000000E+00  0.00000000E+00
  0.00000000E+00  0.00000000E+00  0.00000000E+00
  0.00000000E+00  0.00000000E+00  0.00000000E+00
  0.00000000E+00  0.00000000E+00  0.00000000E+00
  0.00000000E+00  0.00000000E+00  0.00000000E+00
  0.00000000E+00  0.00000000E+00  0.00000000E+00
  0.00000000E+00  0.00000000E+00  0.00000000E+00
  0.00000000E+00  0.00000000E+00  0.00000000E+00
  0.00000000E+00  0.00000000E+00  0.00000000E+00
  0.00000000E+00  0.00000000E+00  0.00000000E+00
  0.00000000E+00  0.00000000E+00  0.00000000E+00
  0.00000000E+00  0.00000000E+00  0.00000000E+00
  0.00000000E+00  0.00000000E+00  0.00000000E+00
  0.00000000E+00  0.00000000E+00  0.00000000E+00
  0.00000000E+00  0.00000000E+00  0.00000000E+00
  0.00000000E+00  0.00000000E+00  0.00000000E+00
  0.00000000E+00  0.00000000E+00  0.00000000E+00
  0.00000000E+00  0.00000000E+00  0.00000000E+00
  0.00000000E+00  0.00000000E+00  0.00000000E+00
  0.00000000E+00  0.00000000E+00  0.00000000E+00
  0.00000000E+00  0.00000000E+00  0.00000000E+00
  0.00000000E+00  0.00000000E+00  0.00000000E+00
  0.00000000E+00  0.00000000E+00  0.00000000E+00
  0.00000000E+00  0.00000000E+00  0.00000000E+00
  0.00000000E+00  0.00000000E+00  0.00000000E+00
  0.00000000E+00  0.00000000E+00  0.00000000E+00
  0.00000000E+00  0.00000000E+00  0.00000000E+00
  0.00000000E+00  0.00000000E+00  0.00000000E+00
  0.00000000E+00  0.00000000E+00  0.00000000E+00
  0.00000000E+00  0.00000000E+00  0.00000000E+00
  0.00000000E+00  0.00000000E+00  0.00000000E+00
  0.00000000E+00  0.00000000E+00  0.00000000E+00
  0.00000000E+00  0.00000000E+00  0.00000000E+00
  0.00000000E+00  0.00000000E+00  0.00000000E+00
  0.00000000E+00  0.00000000E+00  0.00000000E+00
  0.00000000E+00  0.00000000E+00  0.00000000E+00
  0.00000000E+00  0.00000000E+00  0.00000000E+00
  0.00000000E+00  0.00000000E+00  0.00000000E+00
  0.00000000E+00  0.00000000E+00  0.00000000E+00
  0.00000000E+00  0.00000000E+00  0.00000000E+00
  0.00000000E+00  0.00000000E+00  0.00000000E+00
  0.00000000E+00  0.00000000E+00  0.00000000E+00
  0.00000000E+00  0.00000000E+00  0.00000000E+00
  0.00000000E+00  0.00000000E+00  0.00000000E+00
  0.00000000E+00  0.00000000E+00  0.00000000E+00
  0.00000000E+00  0.00000000E+00  0.00000000E+00
  0.00000000E+00  0.00000000E+00  0.00000000E+00
  0.00000000E+00  0.00000000E+00  0.00000000E+00
  0.00000000E+00  0.00000000E+00  0.00000000E+00
  0.00000000E+00  0.00000000E+00  0.00000000E+00
  0.00000000E+00  0.00000000E+00  0.00000000E+00
  0.00000000E+00  0.00000000E+00  0.00000000E+00
  0.00000000E+00  0.00000000E+00  0.00000000E+00
  0.00000000E+00  0.00000000E+00  0.00000000E+00
  0.00000000E+00  0.00000000E+00  0.00000000E+00
  0.00000000E+00  0.00000000E+00  0.00000000E+00
  0.00000000E+00  0.00000000E+00  0.00000000E+00
  0.00000000E+00  0.00000000E+00  0.00000000E+00
  0.00000000E+00  0.00000000E+00  0.00000000E+00
  0.00000000E+00  0.00000000E+00  0.00000000E+00
  0.00000000E+00  0.00000000E+00  0.00000000E+00
  0.00000000E+00  0.00000000E+00  0.00000000E+00
  0.00000000E+00  0.00000000E+00  0.00000000E+00
  0.00000000E+00  0.00000000E+00  0.00000000E+00
  0.00000000E+00  0.00000000E+00  0.00000000E+00
  0.00000000E+00  0.00000000E+00  0.00000000E+00
  0.00000000E+00  0.00000000E+00  0.00000000E+00
  0.00000000E+00  0.00000000E+00  0.00000000E+00
  0.00000000E+00  0.00000000E+00  0.00000000E+00
  0.00000000E+00  0.00000000E+00  0.00000000E+00
  0.00000000E+00  0.00000000E+00  0.00000000E+00
  0.00000000E+00  0.00000000E+00  0.00000000E+00
  0.00000000E+00  0.00000000E+00  0.00000000E+00
  0.00000000E+00  0.00000000E+00  0.00000000E+00
  0.00000000E+00  0.00000000E+00  0.00000000E+00
  0.00000000E+00  0.00000000E+00  0.00000000E+00
  0.00000000E+00  0.00000000E+00  0.00000000E+00
