 C Pt                                   
   1.0000000000000000     
    17.0979999999999990    0.0000000000000000    0.0000000000000000
     0.0000000000000000   19.7420000000000009    0.0000000000000000
     0.0000000000000000    0.0000000000000000   20.0000000000000000
   C    Pt
   128     7
Direct
  0.9164439510604386  0.8438071625750507  0.3910335507634983
  0.9164379964173998  0.9687962354036737  0.3909555125378247
  0.9164951393971896  0.0938156056817655  0.3909313106966694
  0.9165413340605084  0.2187531403163655  0.3891525804081070
  0.9165361561694401  0.3436544242315835  0.3878943871225224
  0.9165938885076074  0.4683852012233513  0.3928961981687761
  0.9164763983328525  0.5938508380260626  0.3952435565311238
  0.9164824830673652  0.7188123426542006  0.3922720422492357
  0.7914596874917531  0.7813263016341907  0.3895776830387020
  0.7914305817313023  0.9062777840943340  0.3909250861225998
  0.7915294100713899  0.0313688808887114  0.3905590842207494
  0.7915792799139493  0.1562784993188364  0.3869675627079566
  0.7917617508181282  0.2809333377343095  0.3814431838906209
  0.7915820183182180  0.4058635518928654  0.3834781109294572
  0.7920769311999297  0.5307108459256363  0.3984235365976420
  0.7917343087743662  0.6562893981206961  0.3920037371325172
  0.6663831501190444  0.8439152990239017  0.3888641112610347
  0.6664097090615374  0.9688283149766291  0.3911086230529381
  0.6664879753715510  0.0938824976291145  0.3889416567232839
  0.6667009234189811  0.2185546537609774  0.3818474404028542
  0.6666838645556983  0.3432563185889152  0.3767538660010204
  0.6661109842048885  0.4678963832024394  0.3809798842249634
  0.6660945550305657  0.5944157604970706  0.3917263340464273
  0.6663809712284524  0.7190864716708787  0.3866673497885275
  0.5412459103201041  0.7816683629017045  0.3867262666959305
  0.5414618402800933  0.9064260050963371  0.3905648184957292
  0.5414209878948582  0.0313811306209367  0.3915229134496458
  0.5413997488922577  0.1562324562310557  0.3874282582299312
  0.5416446062828327  0.2806845160871999  0.3808104742779918
  0.5417706654835209  0.4058695563106566  0.3842987887957055
  0.5406295353432257  0.5306504100533500  0.3818583898796165
  0.5402905580799298  0.6572166644077724  0.3870322036349178
  0.4163076319479705  0.8439339250684484  0.3897949284832466
  0.4164464256822693  0.9688259174683304  0.3925659895129061
  0.4164327484315034  0.0937259281095809  0.3922866166481004
  0.4161876063624597  0.2185051168865818  0.3877202348630540
  0.4154070882160672  0.3428937335207043  0.3857000250803368
  0.4151860576793677  0.4695307744150295  0.3831751321375247
  0.4158254830318787  0.5940812088547655  0.3831074994644234
  0.4159097642804670  0.7191595759803228  0.3863843719190423
  0.2910777825249145  0.7813783877093092  0.3891438898127365
  0.2913669080964347  0.9062501299898053  0.3916364896637811
  0.2914167813851278  0.0312352115080254  0.3936423023451860
  0.2913064737956143  0.1562312122213586  0.3927825154416079
  0.2910133845419526  0.2810762469909218  0.3899385535304426
  0.2909325939201187  0.4062397094464351  0.3877052906299112
  0.2908825344536802  0.5315156667626029  0.3863537757936110
  0.2910128857655926  0.6565302234208215  0.3875290439663003
  0.1663371523966727  0.8437609337809153  0.3904455248412963
  0.1663156779264278  0.9686980836912272  0.3920722012750356
  0.1663486465962044  0.0937652720979909  0.3936950662953049
  0.1663029441005605  0.2187663942121152  0.3932163860674349
  0.1663921024060434  0.3437322917271843  0.3916826759657249
  0.1662536347113920  0.4687961758202094  0.3909482944269969
  0.1660946342401747  0.5939487823069929  0.3904777838419111
  0.1662718032370197  0.7189026558466278  0.3902941076463070
  0.0414081475789626  0.7813032827564796  0.3914643435042998
  0.0414075387602635  0.9062129094362775  0.3907762359091450
  0.0413925124859588  0.0312534872648781  0.3920391113569063
  0.0414089343567607  0.1563178875476853  0.3927979042943028
  0.0414368739107896  0.2813061515885014  0.3918215639382829
  0.0415504242084788  0.4061865733268175  0.3915728887548996
  0.0412162645523180  0.5313025011008367  0.3931281221091226
  0.0414095789339572  0.6564001412089169  0.3926656389226142
  0.8330187994231693  0.8437509366628805  0.3906177159113989
  0.8330662990555217  0.9687845839675021  0.3910930200518731
  0.8331946919705128  0.0938214436761366  0.3896242680404461
  0.8332826237004533  0.2186876812448494  0.3857018948024980
  0.8333455665395846  0.3435127287831150  0.3833347209226109
  0.8335616408273626  0.4676037356654660  0.3921986908288075
  0.8335906009853717  0.5942399527848365  0.3960711928025720
  0.8331505816746101  0.7187969772093572  0.3910627860981877
  0.7080481848659033  0.7814600774262275  0.3879000578524873
  0.7080201603379088  0.9063300448367194  0.3905422537744143
  0.7080763656013075  0.0313883186693480  0.3906288972177186
  0.7082991010938008  0.1562491368521825  0.3858730252991844
  0.7084108072742595  0.2807201729601604  0.3786999420066415
  0.7081354041978286  0.4058410383517043  0.3785386539379746
  0.7077493893565404  0.5301197867553592  0.3930732143715302
  0.7082477723410521  0.6567751176840043  0.3893101651980798
  0.5830379699558104  0.8440597056118205  0.3885456533763673
  0.5830586959024798  0.9688790686661702  0.3913726740190803
  0.5830908377623312  0.0938499029392772  0.3895571159993306
  0.5831868394110600  0.2185210615298636  0.3827359659712507
  0.5836763127016057  0.3427773454515489  0.3788083023098052
  0.5831336188079433  0.4690940692111313  0.3795553722221276
  0.5817039560135694  0.5938933225251376  0.3892887259941106
  0.5827733639493695  0.7193623474241765  0.3858737646846713
  0.4577908261091166  0.7815098170697307  0.3877048915194944
  0.4579857882748418  0.9063867314968443  0.3910080171284786
  0.4580359453489874  0.0312965353096374  0.3925756310701550
  0.4579763979926358  0.1561288647581167  0.3892686735913868
  0.4576744365328675  0.2808222014885523  0.3843735951814746
  0.4570481044671200  0.4063566538989966  0.3866634981319372
  0.4571785943865086  0.5314723042433510  0.3812269149278026
  0.4570725800383857  0.6567592946138232  0.3847677526734323
  0.3328786814596202  0.8438227737673025  0.3901244823839947
  0.3330601033760401  0.9687453687420055  0.3929749048040537
  0.3329617581610470  0.0937530558912718  0.3933541758542960
  0.3327753423428413  0.2186661826729212  0.3902102637192022
  0.3323270600015427  0.3434596251666739  0.3876575619967413
  0.3322897234933282  0.4689909357226986  0.3851276994946431
  0.3326930478659813  0.5939768984061147  0.3854926667253923
  0.3325795187051180  0.7190470942066477  0.3875485702510614
  0.2078640931878218  0.7813258917357216  0.3898799996469173
  0.2080014782276320  0.9061987342435411  0.3913502905155776
  0.2079664484845693  0.0312381183188124  0.3931925374914674
  0.2078875380466112  0.1562949698729703  0.3937400281329231
  0.2077552667567561  0.2811523470730400  0.3919537725952313
  0.2078593774937024  0.4062631158247832  0.3902355674533610
  0.2076307624551458  0.5313905366771405  0.3894536513152244
  0.2077486399444178  0.6564308715294814  0.3893660772465174
  0.0830175165240639  0.8437620252610326  0.3906808163007066
  0.0830174830511793  0.9687677884934781  0.3914710946666498
  0.0829598900046489  0.0938037154106533  0.3931208601047143
  0.0829937812484134  0.2188030749355145  0.3929125469992030
  0.0831033841610967  0.3437150758907320  0.3918002038307938
  0.0829527379682527  0.4687426466239217  0.3922938757341017
  0.0828722224466513  0.5938541296293026  0.3924248417865943
  0.0829537399517602  0.7187909600583454  0.3916825529717470
  0.9580567570373387  0.7812874099441258  0.3915813934492853
  0.9580083720438596  0.9062863465280784  0.3908237780615073
  0.9580419074615683  0.0313345049271277  0.3914671681463126
  0.9581327032681523  0.1563305011055617  0.3912148844186706
  0.9581860308021491  0.2812675996110904  0.3897027695736385
  0.9583302978543360  0.4060171166464655  0.3905187697664861
  0.9580000240520616  0.5311210610837336  0.3944890658807661
  0.9581286203177328  0.6563547308932240  0.3934968698135419
  0.5496337802383469  0.3713949918646838  0.6069007108381552
  0.7345753052383027  0.5207778202107110  0.4997406818656125
  0.5028014154153034  0.3952772507810939  0.4899282715333850
  0.5544584067096798  0.4915048412125623  0.5593232035242632
  0.6815785155393591  0.4332034518123637  0.5905630898025276
  0.6055888877898206  0.5951531410819093  0.4992876470082881
  0.6686637812680966  0.5620977726282355  0.6125325653587177

  0.00000000E+00  0.00000000E+00  0.00000000E+00
  0.00000000E+00  0.00000000E+00  0.00000000E+00
  0.00000000E+00  0.00000000E+00  0.00000000E+00
  0.00000000E+00  0.00000000E+00  0.00000000E+00
  0.00000000E+00  0.00000000E+00  0.00000000E+00
  0.00000000E+00  0.00000000E+00  0.00000000E+00
  0.00000000E+00  0.00000000E+00  0.00000000E+00
  0.00000000E+00  0.00000000E+00  0.00000000E+00
  0.00000000E+00  0.00000000E+00  0.00000000E+00
  0.00000000E+00  0.00000000E+00  0.00000000E+00
  0.00000000E+00  0.00000000E+00  0.00000000E+00
  0.00000000E+00  0.00000000E+00  0.00000000E+00
  0.00000000E+00  0.00000000E+00  0.00000000E+00
  0.00000000E+00  0.00000000E+00  0.00000000E+00
  0.00000000E+00  0.00000000E+00  0.00000000E+00
  0.00000000E+00  0.00000000E+00  0.00000000E+00
  0.00000000E+00  0.00000000E+00  0.00000000E+00
  0.00000000E+00  0.00000000E+00  0.00000000E+00
  0.00000000E+00  0.00000000E+00  0.00000000E+00
  0.00000000E+00  0.00000000E+00  0.00000000E+00
  0.00000000E+00  0.00000000E+00  0.00000000E+00
  0.00000000E+00  0.00000000E+00  0.00000000E+00
  0.00000000E+00  0.00000000E+00  0.00000000E+00
  0.00000000E+00  0.00000000E+00  0.00000000E+00
  0.00000000E+00  0.00000000E+00  0.00000000E+00
  0.00000000E+00  0.00000000E+00  0.00000000E+00
  0.00000000E+00  0.00000000E+00  0.00000000E+00
  0.00000000E+00  0.00000000E+00  0.00000000E+00
  0.00000000E+00  0.00000000E+00  0.00000000E+00
  0.00000000E+00  0.00000000E+00  0.00000000E+00
  0.00000000E+00  0.00000000E+00  0.00000000E+00
  0.00000000E+00  0.00000000E+00  0.00000000E+00
  0.00000000E+00  0.00000000E+00  0.00000000E+00
  0.00000000E+00  0.00000000E+00  0.00000000E+00
  0.00000000E+00  0.00000000E+00  0.00000000E+00
  0.00000000E+00  0.00000000E+00  0.00000000E+00
  0.00000000E+00  0.00000000E+00  0.00000000E+00
  0.00000000E+00  0.00000000E+00  0.00000000E+00
  0.00000000E+00  0.00000000E+00  0.00000000E+00
  0.00000000E+00  0.00000000E+00  0.00000000E+00
  0.00000000E+00  0.00000000E+00  0.00000000E+00
  0.00000000E+00  0.00000000E+00  0.00000000E+00
  0.00000000E+00  0.00000000E+00  0.00000000E+00
  0.00000000E+00  0.00000000E+00  0.00000000E+00
  0.00000000E+00  0.00000000E+00  0.00000000E+00
  0.00000000E+00  0.00000000E+00  0.00000000E+00
  0.00000000E+00  0.00000000E+00  0.00000000E+00
  0.00000000E+00  0.00000000E+00  0.00000000E+00
  0.00000000E+00  0.00000000E+00  0.00000000E+00
  0.00000000E+00  0.00000000E+00  0.00000000E+00
  0.00000000E+00  0.00000000E+00  0.00000000E+00
  0.00000000E+00  0.00000000E+00  0.00000000E+00
  0.00000000E+00  0.00000000E+00  0.00000000E+00
  0.00000000E+00  0.00000000E+00  0.00000000E+00
  0.00000000E+00  0.00000000E+00  0.00000000E+00
  0.00000000E+00  0.00000000E+00  0.00000000E+00
  0.00000000E+00  0.00000000E+00  0.00000000E+00
  0.00000000E+00  0.00000000E+00  0.00000000E+00
  0.00000000E+00  0.00000000E+00  0.00000000E+00
  0.00000000E+00  0.00000000E+00  0.00000000E+00
  0.00000000E+00  0.00000000E+00  0.00000000E+00
  0.00000000E+00  0.00000000E+00  0.00000000E+00
  0.00000000E+00  0.00000000E+00  0.00000000E+00
  0.00000000E+00  0.00000000E+00  0.00000000E+00
  0.00000000E+00  0.00000000E+00  0.00000000E+00
  0.00000000E+00  0.00000000E+00  0.00000000E+00
  0.00000000E+00  0.00000000E+00  0.00000000E+00
  0.00000000E+00  0.00000000E+00  0.00000000E+00
  0.00000000E+00  0.00000000E+00  0.00000000E+00
  0.00000000E+00  0.00000000E+00  0.00000000E+00
  0.00000000E+00  0.00000000E+00  0.00000000E+00
  0.00000000E+00  0.00000000E+00  0.00000000E+00
  0.00000000E+00  0.00000000E+00  0.00000000E+00
  0.00000000E+00  0.00000000E+00  0.00000000E+00
  0.00000000E+00  0.00000000E+00  0.00000000E+00
  0.00000000E+00  0.00000000E+00  0.00000000E+00
  0.00000000E+00  0.00000000E+00  0.00000000E+00
  0.00000000E+00  0.00000000E+00  0.00000000E+00
  0.00000000E+00  0.00000000E+00  0.00000000E+00
  0.00000000E+00  0.00000000E+00  0.00000000E+00
  0.00000000E+00  0.00000000E+00  0.00000000E+00
  0.00000000E+00  0.00000000E+00  0.00000000E+00
  0.00000000E+00  0.00000000E+00  0.00000000E+00
  0.00000000E+00  0.00000000E+00  0.00000000E+00
  0.00000000E+00  0.00000000E+00  0.00000000E+00
  0.00000000E+00  0.00000000E+00  0.00000000E+00
  0.00000000E+00  0.00000000E+00  0.00000000E+00
  0.00000000E+00  0.00000000E+00  0.00000000E+00
  0.00000000E+00  0.00000000E+00  0.00000000E+00
  0.00000000E+00  0.00000000E+00  0.00000000E+00
  0.00000000E+00  0.00000000E+00  0.00000000E+00
  0.00000000E+00  0.00000000E+00  0.00000000E+00
  0.00000000E+00  0.00000000E+00  0.00000000E+00
  0.00000000E+00  0.00000000E+00  0.00000000E+00
  0.00000000E+00  0.00000000E+00  0.00000000E+00
  0.00000000E+00  0.00000000E+00  0.00000000E+00
  0.00000000E+00  0.00000000E+00  0.00000000E+00
  0.00000000E+00  0.00000000E+00  0.00000000E+00
  0.00000000E+00  0.00000000E+00  0.00000000E+00
  0.00000000E+00  0.00000000E+00  0.00000000E+00
  0.00000000E+00  0.00000000E+00  0.00000000E+00
  0.00000000E+00  0.00000000E+00  0.00000000E+00
  0.00000000E+00  0.00000000E+00  0.00000000E+00
  0.00000000E+00  0.00000000E+00  0.00000000E+00
  0.00000000E+00  0.00000000E+00  0.00000000E+00
  0.00000000E+00  0.00000000E+00  0.00000000E+00
  0.00000000E+00  0.00000000E+00  0.00000000E+00
  0.00000000E+00  0.00000000E+00  0.00000000E+00
  0.00000000E+00  0.00000000E+00  0.00000000E+00
  0.00000000E+00  0.00000000E+00  0.00000000E+00
  0.00000000E+00  0.00000000E+00  0.00000000E+00
  0.00000000E+00  0.00000000E+00  0.00000000E+00
  0.00000000E+00  0.00000000E+00  0.00000000E+00
  0.00000000E+00  0.00000000E+00  0.00000000E+00
  0.00000000E+00  0.00000000E+00  0.00000000E+00
  0.00000000E+00  0.00000000E+00  0.00000000E+00
  0.00000000E+00  0.00000000E+00  0.00000000E+00
  0.00000000E+00  0.00000000E+00  0.00000000E+00
  0.00000000E+00  0.00000000E+00  0.00000000E+00
  0.00000000E+00  0.00000000E+00  0.00000000E+00
  0.00000000E+00  0.00000000E+00  0.00000000E+00
  0.00000000E+00  0.00000000E+00  0.00000000E+00
  0.00000000E+00  0.00000000E+00  0.00000000E+00
  0.00000000E+00  0.00000000E+00  0.00000000E+00
  0.00000000E+00  0.00000000E+00  0.00000000E+00
  0.00000000E+00  0.00000000E+00  0.00000000E+00
  0.00000000E+00  0.00000000E+00  0.00000000E+00
  0.00000000E+00  0.00000000E+00  0.00000000E+00
  0.00000000E+00  0.00000000E+00  0.00000000E+00
  0.00000000E+00  0.00000000E+00  0.00000000E+00
  0.00000000E+00  0.00000000E+00  0.00000000E+00
  0.00000000E+00  0.00000000E+00  0.00000000E+00
  0.00000000E+00  0.00000000E+00  0.00000000E+00
  0.00000000E+00  0.00000000E+00  0.00000000E+00
  0.00000000E+00  0.00000000E+00  0.00000000E+00
