 C Pt                                   
   1.0000000000000000     
    17.0979999999999990    0.0000000000000000    0.0000000000000000
     0.0000000000000000   19.7420000000000009    0.0000000000000000
     0.0000000000000000    0.0000000000000000   20.0000000000000000
   C    Pt
   128     7
Direct
  0.9163012679192107  0.8444506753587723  0.3745731378981368
  0.9163041102252796  0.9693046038458600  0.3743661963642616
  0.9163242135358802  0.0942901728542608  0.3738311504861623
  0.9164117316981774  0.2192781995014095  0.3747906674626938
  0.9165283519455178  0.3442722569000185  0.3767565681485664
  0.9164267111665402  0.4694340004212492  0.3765183113877426
  0.9162443951394540  0.5943703783670568  0.3749317466351779
  0.9162704990906421  0.7194642255625123  0.3742929579181572
  0.7913248645556586  0.7820081927465670  0.3742484582336436
  0.7913199344323140  0.9068888981149164  0.3742472880302830
  0.7913150525289189  0.0317887828846825  0.3742500010926826
  0.7913439030589863  0.1567144558042357  0.3744888888565856
  0.7915414850129324  0.2815837198106593  0.3770086896454574
  0.7921406699785492  0.4067325909576355  0.3816007156253136
  0.7918812347410352  0.5321284019200456  0.3796984916304937
  0.7911493712393197  0.6572050949060966  0.3752450803067404
  0.6662842784228892  0.8445709849135065  0.3737561828752238
  0.6662733382255388  0.9693194575374431  0.3744006405835982
  0.6662820258822109  0.0940994842794102  0.3744679628326080
  0.6662862218509206  0.2187701524184904  0.3748876848974594
  0.6660100970794356  0.3429647315333412  0.3767535974545247
  0.6652677202911390  0.4687886288520707  0.3769109921569576
  0.6652216590511164  0.5952700379414957  0.3746869382076136
  0.6664721473612163  0.7199056578225260  0.3717712212010187
  0.5411222147399686  0.7819847232626739  0.3716218279676389
  0.5412389808083418  0.9068489476158469  0.3740741046626073
  0.5412548132817491  0.0317119497492078  0.3745425632161622
  0.5411875615872487  0.1563576700136508  0.3746885359570293
  0.5411119803160144  0.2812182271368364  0.3741855387750910
  0.5413267305774437  0.4069057455925214  0.3753997707072352
  0.5419717891389683  0.5315106578416386  0.3601345221728519
  0.5408887598392529  0.6570393482009620  0.3635399112272980
  0.4161348820083956  0.8444305314351611  0.3726965301331541
  0.4162554902227757  0.9692311483329967  0.3742651846345369
  0.4162161814486244  0.0941270127802470  0.3744836611781890
  0.4159635208716569  0.2188966180545857  0.3751789077631140
  0.4153670410990221  0.3431614715929310  0.3788681995966358
  0.4147238586504325  0.4697257980061232  0.3772582472123296
  0.4154387372898584  0.5952212716614308  0.3700710257025461
  0.4158284627448112  0.7196831624454318  0.3686166105711867
  0.2909769522716891  0.7820457300101816  0.3727933133282877
  0.2911788012337138  0.9068210245349784  0.3738063585690889
  0.2911765699660229  0.0317351866069700  0.3742673799304612
  0.2911250178201350  0.1566022355785972  0.3745612057828461
  0.2908583491239704  0.2813850479073159  0.3760049958906488
  0.2908487719625393  0.4067759423307899  0.3770720985722446
  0.2906488405192515  0.5321961137379391  0.3734935696839189
  0.2907373627000757  0.6571620485127558  0.3715775897380553
  0.1661406515114768  0.8444329176332439  0.3742080315538948
  0.1662470543608915  0.9693060095809422  0.3740763022677112
  0.1661992087580526  0.0941872316867239  0.3739097293478966
  0.1661510610263883  0.2191957837288526  0.3741971075967232
  0.1661283835642647  0.3442160287235700  0.3743025235438089
  0.1660871915373298  0.4693593336106991  0.3733964687226275
  0.1658995573744095  0.5945318711755283  0.3723417956659534
  0.1659482244642678  0.7195232092898070  0.3732453118331100
  0.0411666783786149  0.7818883765920793  0.3743653954148216
  0.0412007490945090  0.9068792527006867  0.3745771705255786
  0.0412860515760578  0.0318143934520949  0.3737088856595796
  0.0412664768461930  0.1567181970661820  0.3737484352548285
  0.0413203708651435  0.2818175762409378  0.3742777035146576
  0.0413048244958639  0.4067890978952657  0.3739596291824545
  0.0411924967756843  0.5318928970345805  0.3731238335820426
  0.0410921100204373  0.6569406915011820  0.3732077576358488
  0.8330697403025260  0.8445199836366782  0.3743762719028661
  0.8330014683090438  0.9693183545824435  0.3743289660425162
  0.8330100619717269  0.0943201820477862  0.3741139481529363
  0.8330750735802899  0.2192922940724379  0.3752725740728457
  0.8332621884687067  0.3443025175297765  0.3788562980476481
  0.8332889246165904  0.4695125549459354  0.3794315693955818
  0.8331066958249514  0.5943773409948496  0.3765941604739159
  0.8329833388862510  0.7195958068629937  0.3745827691075455
  0.7080253115747691  0.7821947983337142  0.3734209101302722
  0.7080057153943015  0.9069777255328160  0.3741863780948052
  0.7079603490097791  0.0317528886886572  0.3743795382238405
  0.7080274795269131  0.1565005876549725  0.3745857301441249
  0.7080793370119165  0.2811276305826516  0.3761617923288904
  0.7081038377207393  0.4060989568893031  0.3829593733013591
  0.7078319883544092  0.5324432697840626  0.3814233440865998
  0.7083882524400660  0.6579776294603279  0.3736665842998243
  0.5829248945993637  0.8444400703172449  0.3735474158629599
  0.5829406085605251  0.9693343496080589  0.3744344994761135
  0.5829354125968818  0.0940858893719782  0.3746418420396286
  0.5828763406792647  0.2189134356347359  0.3745372971590107
  0.5831521832056175  0.3429743881160746  0.3738954149004642
  0.5829675823244577  0.4694176392927977  0.3625306818609056
  0.5824217497533291  0.5947610710713632  0.3604256211546459
  0.5829437226490020  0.7196837698912772  0.3695250956352122
  0.4577036998719656  0.7821380656729113  0.3706803700027859
  0.4578950484003855  0.9069007961185531  0.3738550150236954
  0.4579763494347032  0.0316830075970718  0.3744508892019702
  0.4578225398959632  0.1565483088162811  0.3746512765851354
  0.4573929664841249  0.2811975374159396  0.3756727329525309
  0.4569283012787016  0.4064922278723406  0.3811192148313114
  0.4577913973938647  0.5321636991542134  0.3720989470454826
  0.4571195219508443  0.6575567375160671  0.3651429713634461
  0.3327609202489032  0.8444676153318685  0.3730760936534570
  0.3328970335869655  0.9692934642957702  0.3741494346885163
  0.3328254540916963  0.0942211432138284  0.3744316571295597
  0.3326885677884800  0.2190506810200449  0.3753384325098361
  0.3324459785769065  0.3439227708446793  0.3779822435351696
  0.3321531153542289  0.4695509351675890  0.3764332272604111
  0.3321696143440115  0.5946877555844343  0.3718726023967136
  0.3324973561075229  0.7196248346458022  0.3711640879265186
  0.2076649476008975  0.7819944698995371  0.3736310494546283
  0.2078438992620536  0.9068791243567192  0.3740356108146770
  0.2078806568367428  0.0318327739843197  0.3740633859829878
  0.2078424279109085  0.1567129762307801  0.3742092523461160
  0.2076876528674383  0.2816573905859643  0.3747535911642116
  0.2078346001084893  0.4067924794941605  0.3748286075668583
  0.2076036445274801  0.5319956143372075  0.3728899529866495
  0.2075529723955175  0.6570229605245146  0.3723797597618060
  0.0828555385193168  0.8443663691498565  0.3745825329937615
  0.0828740753285235  0.9694076313738229  0.3741225928352216
  0.0829334084159140  0.0942394774846113  0.3735978323485891
  0.0829007179130586  0.2193108410403939  0.3740165693071527
  0.0829432915877949  0.3442877536332590  0.3739177549130747
  0.0829837384225856  0.4693590144826735  0.3731036294055688
  0.0827524981160275  0.5944539503393068  0.3726461195533425
  0.0826744355434281  0.7194362306766681  0.3736547252808309
  0.9579068953260316  0.7819400469944511  0.3743933517717865
  0.9579132526007219  0.9068800056702819  0.3746218076850253
  0.9580265368123995  0.0318530764647571  0.3738822331759670
  0.9579274495546912  0.1568628255878018  0.3738895976859458
  0.9580551853793812  0.2817701963573075  0.3751802971600493
  0.9581197725461761  0.4068679390774477  0.3757864997363893
  0.9579726021225274  0.5318695827188470  0.3746961069025360
  0.9579353389154340  0.6569211839213062  0.3738759513734600
  0.4832334894464729  0.5433650258012221  0.4819277302905074
  0.6502311317991297  0.5629841148622226  0.4821825513952331
  0.5818066248079381  0.4296050180461105  0.5947926441055366
  0.6662451137328455  0.4310187016881725  0.4884639278199043
  0.5653440899667118  0.5573480927852992  0.5864745651293852
  0.5119763440599900  0.4132062412922233  0.4830201716597358
  0.5493277852778022  0.6579839111769842  0.5063557259365412

  0.00000000E+00  0.00000000E+00  0.00000000E+00
  0.00000000E+00  0.00000000E+00  0.00000000E+00
  0.00000000E+00  0.00000000E+00  0.00000000E+00
  0.00000000E+00  0.00000000E+00  0.00000000E+00
  0.00000000E+00  0.00000000E+00  0.00000000E+00
  0.00000000E+00  0.00000000E+00  0.00000000E+00
  0.00000000E+00  0.00000000E+00  0.00000000E+00
  0.00000000E+00  0.00000000E+00  0.00000000E+00
  0.00000000E+00  0.00000000E+00  0.00000000E+00
  0.00000000E+00  0.00000000E+00  0.00000000E+00
  0.00000000E+00  0.00000000E+00  0.00000000E+00
  0.00000000E+00  0.00000000E+00  0.00000000E+00
  0.00000000E+00  0.00000000E+00  0.00000000E+00
  0.00000000E+00  0.00000000E+00  0.00000000E+00
  0.00000000E+00  0.00000000E+00  0.00000000E+00
  0.00000000E+00  0.00000000E+00  0.00000000E+00
  0.00000000E+00  0.00000000E+00  0.00000000E+00
  0.00000000E+00  0.00000000E+00  0.00000000E+00
  0.00000000E+00  0.00000000E+00  0.00000000E+00
  0.00000000E+00  0.00000000E+00  0.00000000E+00
  0.00000000E+00  0.00000000E+00  0.00000000E+00
  0.00000000E+00  0.00000000E+00  0.00000000E+00
  0.00000000E+00  0.00000000E+00  0.00000000E+00
  0.00000000E+00  0.00000000E+00  0.00000000E+00
  0.00000000E+00  0.00000000E+00  0.00000000E+00
  0.00000000E+00  0.00000000E+00  0.00000000E+00
  0.00000000E+00  0.00000000E+00  0.00000000E+00
  0.00000000E+00  0.00000000E+00  0.00000000E+00
  0.00000000E+00  0.00000000E+00  0.00000000E+00
  0.00000000E+00  0.00000000E+00  0.00000000E+00
  0.00000000E+00  0.00000000E+00  0.00000000E+00
  0.00000000E+00  0.00000000E+00  0.00000000E+00
  0.00000000E+00  0.00000000E+00  0.00000000E+00
  0.00000000E+00  0.00000000E+00  0.00000000E+00
  0.00000000E+00  0.00000000E+00  0.00000000E+00
  0.00000000E+00  0.00000000E+00  0.00000000E+00
  0.00000000E+00  0.00000000E+00  0.00000000E+00
  0.00000000E+00  0.00000000E+00  0.00000000E+00
  0.00000000E+00  0.00000000E+00  0.00000000E+00
  0.00000000E+00  0.00000000E+00  0.00000000E+00
  0.00000000E+00  0.00000000E+00  0.00000000E+00
  0.00000000E+00  0.00000000E+00  0.00000000E+00
  0.00000000E+00  0.00000000E+00  0.00000000E+00
  0.00000000E+00  0.00000000E+00  0.00000000E+00
  0.00000000E+00  0.00000000E+00  0.00000000E+00
  0.00000000E+00  0.00000000E+00  0.00000000E+00
  0.00000000E+00  0.00000000E+00  0.00000000E+00
  0.00000000E+00  0.00000000E+00  0.00000000E+00
  0.00000000E+00  0.00000000E+00  0.00000000E+00
  0.00000000E+00  0.00000000E+00  0.00000000E+00
  0.00000000E+00  0.00000000E+00  0.00000000E+00
  0.00000000E+00  0.00000000E+00  0.00000000E+00
  0.00000000E+00  0.00000000E+00  0.00000000E+00
  0.00000000E+00  0.00000000E+00  0.00000000E+00
  0.00000000E+00  0.00000000E+00  0.00000000E+00
  0.00000000E+00  0.00000000E+00  0.00000000E+00
  0.00000000E+00  0.00000000E+00  0.00000000E+00
  0.00000000E+00  0.00000000E+00  0.00000000E+00
  0.00000000E+00  0.00000000E+00  0.00000000E+00
  0.00000000E+00  0.00000000E+00  0.00000000E+00
  0.00000000E+00  0.00000000E+00  0.00000000E+00
  0.00000000E+00  0.00000000E+00  0.00000000E+00
  0.00000000E+00  0.00000000E+00  0.00000000E+00
  0.00000000E+00  0.00000000E+00  0.00000000E+00
  0.00000000E+00  0.00000000E+00  0.00000000E+00
  0.00000000E+00  0.00000000E+00  0.00000000E+00
  0.00000000E+00  0.00000000E+00  0.00000000E+00
  0.00000000E+00  0.00000000E+00  0.00000000E+00
  0.00000000E+00  0.00000000E+00  0.00000000E+00
  0.00000000E+00  0.00000000E+00  0.00000000E+00
  0.00000000E+00  0.00000000E+00  0.00000000E+00
  0.00000000E+00  0.00000000E+00  0.00000000E+00
  0.00000000E+00  0.00000000E+00  0.00000000E+00
  0.00000000E+00  0.00000000E+00  0.00000000E+00
  0.00000000E+00  0.00000000E+00  0.00000000E+00
  0.00000000E+00  0.00000000E+00  0.00000000E+00
  0.00000000E+00  0.00000000E+00  0.00000000E+00
  0.00000000E+00  0.00000000E+00  0.00000000E+00
  0.00000000E+00  0.00000000E+00  0.00000000E+00
  0.00000000E+00  0.00000000E+00  0.00000000E+00
  0.00000000E+00  0.00000000E+00  0.00000000E+00
  0.00000000E+00  0.00000000E+00  0.00000000E+00
  0.00000000E+00  0.00000000E+00  0.00000000E+00
  0.00000000E+00  0.00000000E+00  0.00000000E+00
  0.00000000E+00  0.00000000E+00  0.00000000E+00
  0.00000000E+00  0.00000000E+00  0.00000000E+00
  0.00000000E+00  0.00000000E+00  0.00000000E+00
  0.00000000E+00  0.00000000E+00  0.00000000E+00
  0.00000000E+00  0.00000000E+00  0.00000000E+00
  0.00000000E+00  0.00000000E+00  0.00000000E+00
  0.00000000E+00  0.00000000E+00  0.00000000E+00
  0.00000000E+00  0.00000000E+00  0.00000000E+00
  0.00000000E+00  0.00000000E+00  0.00000000E+00
  0.00000000E+00  0.00000000E+00  0.00000000E+00
  0.00000000E+00  0.00000000E+00  0.00000000E+00
  0.00000000E+00  0.00000000E+00  0.00000000E+00
  0.00000000E+00  0.00000000E+00  0.00000000E+00
  0.00000000E+00  0.00000000E+00  0.00000000E+00
  0.00000000E+00  0.00000000E+00  0.00000000E+00
  0.00000000E+00  0.00000000E+00  0.00000000E+00
  0.00000000E+00  0.00000000E+00  0.00000000E+00
  0.00000000E+00  0.00000000E+00  0.00000000E+00
  0.00000000E+00  0.00000000E+00  0.00000000E+00
  0.00000000E+00  0.00000000E+00  0.00000000E+00
  0.00000000E+00  0.00000000E+00  0.00000000E+00
  0.00000000E+00  0.00000000E+00  0.00000000E+00
  0.00000000E+00  0.00000000E+00  0.00000000E+00
  0.00000000E+00  0.00000000E+00  0.00000000E+00
  0.00000000E+00  0.00000000E+00  0.00000000E+00
  0.00000000E+00  0.00000000E+00  0.00000000E+00
  0.00000000E+00  0.00000000E+00  0.00000000E+00
  0.00000000E+00  0.00000000E+00  0.00000000E+00
  0.00000000E+00  0.00000000E+00  0.00000000E+00
  0.00000000E+00  0.00000000E+00  0.00000000E+00
  0.00000000E+00  0.00000000E+00  0.00000000E+00
  0.00000000E+00  0.00000000E+00  0.00000000E+00
  0.00000000E+00  0.00000000E+00  0.00000000E+00
  0.00000000E+00  0.00000000E+00  0.00000000E+00
  0.00000000E+00  0.00000000E+00  0.00000000E+00
  0.00000000E+00  0.00000000E+00  0.00000000E+00
  0.00000000E+00  0.00000000E+00  0.00000000E+00
  0.00000000E+00  0.00000000E+00  0.00000000E+00
  0.00000000E+00  0.00000000E+00  0.00000000E+00
  0.00000000E+00  0.00000000E+00  0.00000000E+00
  0.00000000E+00  0.00000000E+00  0.00000000E+00
  0.00000000E+00  0.00000000E+00  0.00000000E+00
  0.00000000E+00  0.00000000E+00  0.00000000E+00
  0.00000000E+00  0.00000000E+00  0.00000000E+00
  0.00000000E+00  0.00000000E+00  0.00000000E+00
  0.00000000E+00  0.00000000E+00  0.00000000E+00
  0.00000000E+00  0.00000000E+00  0.00000000E+00
  0.00000000E+00  0.00000000E+00  0.00000000E+00
  0.00000000E+00  0.00000000E+00  0.00000000E+00
  0.00000000E+00  0.00000000E+00  0.00000000E+00
  0.00000000E+00  0.00000000E+00  0.00000000E+00
