 C Pt                                   
   1.0000000000000000     
    17.0979999999999990    0.0000000000000000    0.0000000000000000
     0.0000000000000000   19.7420000000000009    0.0000000000000000
     0.0000000000000000    0.0000000000000000   20.0000000000000000
   C    Pt
   128    11
Direct
  0.9169241432164613  0.7188614289702694  0.3706768989322988
  0.9169358882617995  0.8438634336092101  0.3706704499548527
  0.9169195127482240  0.9687589709491511  0.3705300887908602
  0.9169197494418738  0.0936075018676273  0.3702865804784915
  0.9169686495643111  0.2185135416866082  0.3708015103855334
  0.9169784531510844  0.3435278020347646  0.3710324346797652
  0.9167834638935082  0.4686031038793273  0.3709139355136039
  0.9167784388577895  0.5937058278764140  0.3709752007333169
  0.7922575759788342  0.6564275108250347  0.3706246114212681
  0.7921589517456361  0.7815102471529863  0.3704534884157088
  0.7919550449783174  0.9063632767188103  0.3702195544729630
  0.7919770608568262  0.0312873137674854  0.3705491022533391
  0.7920606810703013  0.1561333723582942  0.3714850349785237
  0.7920688116608227  0.2809749738731046  0.3713946307986675
  0.7923021160759305  0.4059758514343320  0.3695176871019627
  0.7919613251019312  0.5311804120712658  0.3693901508120803
  0.6674936862020482  0.7191191079280117  0.3697280161834814
  0.6671753459390681  0.8440567573121368  0.3702127332336460
  0.6669595969062964  0.9689324769529261  0.3706021641004915
  0.6669936047339955  0.0937393834768380  0.3711287642198640
  0.6672364109101002  0.2185568257215354  0.3698534435653656
  0.6673361122459264  0.3433872388670141  0.3658136342069094
  0.6678622127412235  0.4682594177292436  0.3619908599373606
  0.6677657801589461  0.5941398129467661  0.3662154787679158
  0.5435566977941223  0.6568516378572012  0.3696985738101099
  0.5421271696975413  0.7817200586729666  0.3700552649727189
  0.5418806711509387  0.9065407495100833  0.3705624493455328
  0.5419175994754943  0.0313945576521412  0.3711951813962678
  0.5420817170760668  0.1562162268931075  0.3697610302046787
  0.5424351819960666  0.2807828445343327  0.3640077559080904
  0.5426400503277505  0.4053535386619677  0.3553313736466566
  0.5435301801495533  0.5307232552267152  0.3666189436035984
  0.4167063681972599  0.7198602975290997  0.3712313785814746
  0.4168347359767388  0.8442058739737327  0.3694287610921950
  0.4167850881931012  0.9690208469600762  0.3708243671305763
  0.4168893498686160  0.0937510491199202  0.3708533739026316
  0.4171659879970635  0.2184636670074945  0.3683260790837213
  0.4180949515701828  0.3431274531809277  0.3637155025031739
  0.4167551803538148  0.4675497024360007  0.3604019323165810
  0.4170032569522745  0.5939994643923652  0.3760609084229506
  0.2913097842437912  0.6568820772200975  0.3701328555153934
  0.2916857949535736  0.7816728963306038  0.3683443198998406
  0.2917009051190065  0.9064186235954759  0.3699480508799388
  0.2917636897193085  0.0312449027119247  0.3707949992151975
  0.2918221154360786  0.1560110513484197  0.3704036665000631
  0.2916841612444550  0.2801587741814521  0.3716414847934248
  0.2919188677518897  0.4060941717681016  0.3761150716976622
  0.2918336526055137  0.5313738821276709  0.3789684369503347
  0.1666103458684104  0.7187857174356823  0.3688256783296417
  0.1666705639309672  0.8438716578870168  0.3695833660687168
  0.1667168012348200  0.9687672396406437  0.3704702239620898
  0.1667575689832245  0.0935586886308736  0.3705085799184641
  0.1669160749738061  0.2185092056650469  0.3699933799823972
  0.1666230245614335  0.3435481992127500  0.3709051120279218
  0.1662577960595971  0.4685975508611734  0.3724185068536345
  0.1664654165700143  0.5935903344278590  0.3716694177011082
  0.0416896149580822  0.6562200762994037  0.3696744373765563
  0.0417494217974602  0.7813212772373757  0.3699177363936280
  0.0418102691164547  0.9062661292344404  0.3707649665645130
  0.0419133072391197  0.0311780006939506  0.3703490279552794
  0.0418705207613528  0.1560701386180107  0.3697809402572861
  0.0418171976276014  0.2809553322449770  0.3697619469168260
  0.0416984998392884  0.4060180228826631  0.3702340066164280
  0.0414993617718932  0.5312148247478563  0.3705273567888638
  0.8337253998349574  0.7189708374968465  0.3708916033272533
  0.8336144874581443  0.8439389412041396  0.3703913673035250
  0.8335671061464892  0.9688246982599846  0.3703217268228146
  0.8336490716123280  0.0936309298382075  0.3708030763490855
  0.8336333852443237  0.2185425350364676  0.3716512050995321
  0.8338023870596025  0.3434738080743786  0.3711279119976673
  0.8336454763132451  0.4685699348888462  0.3701775274565507
  0.8335359163548235  0.5938160032817519  0.3708476749559767
  0.7090632956622777  0.6566095177881989  0.3691839190563078
  0.7089034591822839  0.7817286015224568  0.3701862282763490
  0.7086154322543893  0.9064090748445319  0.3702612239550278
  0.7085764441544545  0.0312297022063774  0.3708032674550317
  0.7087383525665268  0.1561368182707654  0.3712484904195158
  0.7088398924085265  0.2809875213582940  0.3696488947786670
  0.7091222105387577  0.4058292046416912  0.3657274897599707
  0.7089767088846306  0.5312393232305374  0.3657906320832246
  0.5842022820537038  0.7193017793416696  0.3696614814965480
  0.5836588735699236  0.8440879882097346  0.3702469260238662
  0.5835824301943541  0.9689400713678258  0.3709220442595980
  0.5836683400517353  0.0937341665780949  0.3709627220716747
  0.5838836625147538  0.2185116152975639  0.3680868873067152
  0.5841488257910591  0.3432673381028647  0.3609959104910797
  0.5849764795133364  0.4674358401874812  0.3578802358985457
  0.5850097856118273  0.5947200667573572  0.3663045946628494
  0.4593863304174518  0.6572372481696258  0.3755971804952472
  0.4586929478704432  0.7819467718471368  0.3697719821773225
  0.4585977323445301  0.9066018947788564  0.3702977474152205
  0.4585381323471398  0.0313828240383031  0.3711832038462374
  0.4587016313279358  0.1561944762820376  0.3697238842606947
  0.4591463871480581  0.2807208752714710  0.3645624131765199
  0.4587786583308827  0.4053213085509854  0.3565088204151207
  0.4595061002387404  0.5295567251780612  0.3694592371258280
  0.3334346929439326  0.7192983410238561  0.3691083472189400
  0.3334356406906572  0.8441028054986350  0.3691302713597130
  0.3334767675979174  0.9688669865349485  0.3706358838054854
  0.3335683654607846  0.0936137444657874  0.3707438971061766
  0.3335578359446988  0.2183116601122289  0.3697769293382800
  0.3346486984980805  0.3428873982200253  0.3748943842889333
  0.3351304206902389  0.4687919222127355  0.3704577192452143
  0.3327293439597624  0.5946413875930395  0.3740192281606576
  0.2081369849907278  0.6563340368708428  0.3698737220564881
  0.2083375712407499  0.7813693281424504  0.3686059161117459
  0.2084154697285397  0.9062388697489117  0.3700433450532111
  0.2084178666947377  0.0311837753943060  0.3706009320143538
  0.2085091987920554  0.1560950386324118  0.3705466282704983
  0.2085523417200701  0.2807378023411534  0.3705454803263051
  0.2074667277619414  0.4060264298645180  0.3730197608230398
  0.2075484692839087  0.5312365034295486  0.3749007379289975
  0.0832478765647047  0.7187715122666606  0.3692781745906115
  0.0833772515755176  0.8437202467619420  0.3702021277924571
  0.0834193028713017  0.9686913759116964  0.3706288473432676
  0.0834417264788712  0.0935994036076497  0.3701110468721944
  0.0834186665577152  0.2185237128138438  0.3696704899904755
  0.0833880658219465  0.3435731935467324  0.3700295082979156
  0.0831286738274423  0.4685734847076216  0.3706160244931235
  0.0832032952221182  0.5937032598019274  0.3702962969453527
  0.9584224796123280  0.6563042597766157  0.3704175788459315
  0.9584320227548950  0.7812980612850662  0.3704930181560836
  0.9583974900910319  0.9062568003504654  0.3707935805316068
  0.9584310363533892  0.0311823077667750  0.3702988655664320
  0.9585530601078150  0.1561225810726244  0.3701187563175264
  0.9586034108664275  0.2810000425166678  0.3704750253439864
  0.9584303887227464  0.4060273103439249  0.3706819664103792
  0.9583465100938270  0.5311691998967991  0.3707619976092564
  0.4302768313334315  0.6217190747347913  0.4817611504691179
  0.4460551752494262  0.6171054150182868  0.6065905724789700
  0.5505604025434230  0.5244412850360155  0.5949170666856975
  0.3500371782924279  0.3693740444187850  0.6065557463141303
  0.3169375503270277  0.3821630718926264  0.4815771378281716
  0.4619697667753830  0.3935680291629802  0.5238529894928954
  0.4048950933295789  0.4943584220246405  0.6007946776274586
  0.3255944214208700  0.5203076966284531  0.4896455262904474
  0.6063239377326907  0.4255364412518368  0.5266468298120204
  0.2574771346535733  0.4708816622464075  0.5963673761886561
  0.5167607082508182  0.5157756114119811  0.4734651266038333

  0.00000000E+00  0.00000000E+00  0.00000000E+00
  0.00000000E+00  0.00000000E+00  0.00000000E+00
  0.00000000E+00  0.00000000E+00  0.00000000E+00
  0.00000000E+00  0.00000000E+00  0.00000000E+00
  0.00000000E+00  0.00000000E+00  0.00000000E+00
  0.00000000E+00  0.00000000E+00  0.00000000E+00
  0.00000000E+00  0.00000000E+00  0.00000000E+00
  0.00000000E+00  0.00000000E+00  0.00000000E+00
  0.00000000E+00  0.00000000E+00  0.00000000E+00
  0.00000000E+00  0.00000000E+00  0.00000000E+00
  0.00000000E+00  0.00000000E+00  0.00000000E+00
  0.00000000E+00  0.00000000E+00  0.00000000E+00
  0.00000000E+00  0.00000000E+00  0.00000000E+00
  0.00000000E+00  0.00000000E+00  0.00000000E+00
  0.00000000E+00  0.00000000E+00  0.00000000E+00
  0.00000000E+00  0.00000000E+00  0.00000000E+00
  0.00000000E+00  0.00000000E+00  0.00000000E+00
  0.00000000E+00  0.00000000E+00  0.00000000E+00
  0.00000000E+00  0.00000000E+00  0.00000000E+00
  0.00000000E+00  0.00000000E+00  0.00000000E+00
  0.00000000E+00  0.00000000E+00  0.00000000E+00
  0.00000000E+00  0.00000000E+00  0.00000000E+00
  0.00000000E+00  0.00000000E+00  0.00000000E+00
  0.00000000E+00  0.00000000E+00  0.00000000E+00
  0.00000000E+00  0.00000000E+00  0.00000000E+00
  0.00000000E+00  0.00000000E+00  0.00000000E+00
  0.00000000E+00  0.00000000E+00  0.00000000E+00
  0.00000000E+00  0.00000000E+00  0.00000000E+00
  0.00000000E+00  0.00000000E+00  0.00000000E+00
  0.00000000E+00  0.00000000E+00  0.00000000E+00
  0.00000000E+00  0.00000000E+00  0.00000000E+00
  0.00000000E+00  0.00000000E+00  0.00000000E+00
  0.00000000E+00  0.00000000E+00  0.00000000E+00
  0.00000000E+00  0.00000000E+00  0.00000000E+00
  0.00000000E+00  0.00000000E+00  0.00000000E+00
  0.00000000E+00  0.00000000E+00  0.00000000E+00
  0.00000000E+00  0.00000000E+00  0.00000000E+00
  0.00000000E+00  0.00000000E+00  0.00000000E+00
  0.00000000E+00  0.00000000E+00  0.00000000E+00
  0.00000000E+00  0.00000000E+00  0.00000000E+00
  0.00000000E+00  0.00000000E+00  0.00000000E+00
  0.00000000E+00  0.00000000E+00  0.00000000E+00
  0.00000000E+00  0.00000000E+00  0.00000000E+00
  0.00000000E+00  0.00000000E+00  0.00000000E+00
  0.00000000E+00  0.00000000E+00  0.00000000E+00
  0.00000000E+00  0.00000000E+00  0.00000000E+00
  0.00000000E+00  0.00000000E+00  0.00000000E+00
  0.00000000E+00  0.00000000E+00  0.00000000E+00
  0.00000000E+00  0.00000000E+00  0.00000000E+00
  0.00000000E+00  0.00000000E+00  0.00000000E+00
  0.00000000E+00  0.00000000E+00  0.00000000E+00
  0.00000000E+00  0.00000000E+00  0.00000000E+00
  0.00000000E+00  0.00000000E+00  0.00000000E+00
  0.00000000E+00  0.00000000E+00  0.00000000E+00
  0.00000000E+00  0.00000000E+00  0.00000000E+00
  0.00000000E+00  0.00000000E+00  0.00000000E+00
  0.00000000E+00  0.00000000E+00  0.00000000E+00
  0.00000000E+00  0.00000000E+00  0.00000000E+00
  0.00000000E+00  0.00000000E+00  0.00000000E+00
  0.00000000E+00  0.00000000E+00  0.00000000E+00
  0.00000000E+00  0.00000000E+00  0.00000000E+00
  0.00000000E+00  0.00000000E+00  0.00000000E+00
  0.00000000E+00  0.00000000E+00  0.00000000E+00
  0.00000000E+00  0.00000000E+00  0.00000000E+00
  0.00000000E+00  0.00000000E+00  0.00000000E+00
  0.00000000E+00  0.00000000E+00  0.00000000E+00
  0.00000000E+00  0.00000000E+00  0.00000000E+00
  0.00000000E+00  0.00000000E+00  0.00000000E+00
  0.00000000E+00  0.00000000E+00  0.00000000E+00
  0.00000000E+00  0.00000000E+00  0.00000000E+00
  0.00000000E+00  0.00000000E+00  0.00000000E+00
  0.00000000E+00  0.00000000E+00  0.00000000E+00
  0.00000000E+00  0.00000000E+00  0.00000000E+00
  0.00000000E+00  0.00000000E+00  0.00000000E+00
  0.00000000E+00  0.00000000E+00  0.00000000E+00
  0.00000000E+00  0.00000000E+00  0.00000000E+00
  0.00000000E+00  0.00000000E+00  0.00000000E+00
  0.00000000E+00  0.00000000E+00  0.00000000E+00
  0.00000000E+00  0.00000000E+00  0.00000000E+00
  0.00000000E+00  0.00000000E+00  0.00000000E+00
  0.00000000E+00  0.00000000E+00  0.00000000E+00
  0.00000000E+00  0.00000000E+00  0.00000000E+00
  0.00000000E+00  0.00000000E+00  0.00000000E+00
  0.00000000E+00  0.00000000E+00  0.00000000E+00
  0.00000000E+00  0.00000000E+00  0.00000000E+00
  0.00000000E+00  0.00000000E+00  0.00000000E+00
  0.00000000E+00  0.00000000E+00  0.00000000E+00
  0.00000000E+00  0.00000000E+00  0.00000000E+00
  0.00000000E+00  0.00000000E+00  0.00000000E+00
  0.00000000E+00  0.00000000E+00  0.00000000E+00
  0.00000000E+00  0.00000000E+00  0.00000000E+00
  0.00000000E+00  0.00000000E+00  0.00000000E+00
  0.00000000E+00  0.00000000E+00  0.00000000E+00
  0.00000000E+00  0.00000000E+00  0.00000000E+00
  0.00000000E+00  0.00000000E+00  0.00000000E+00
  0.00000000E+00  0.00000000E+00  0.00000000E+00
  0.00000000E+00  0.00000000E+00  0.00000000E+00
  0.00000000E+00  0.00000000E+00  0.00000000E+00
  0.00000000E+00  0.00000000E+00  0.00000000E+00
  0.00000000E+00  0.00000000E+00  0.00000000E+00
  0.00000000E+00  0.00000000E+00  0.00000000E+00
  0.00000000E+00  0.00000000E+00  0.00000000E+00
  0.00000000E+00  0.00000000E+00  0.00000000E+00
  0.00000000E+00  0.00000000E+00  0.00000000E+00
  0.00000000E+00  0.00000000E+00  0.00000000E+00
  0.00000000E+00  0.00000000E+00  0.00000000E+00
  0.00000000E+00  0.00000000E+00  0.00000000E+00
  0.00000000E+00  0.00000000E+00  0.00000000E+00
  0.00000000E+00  0.00000000E+00  0.00000000E+00
  0.00000000E+00  0.00000000E+00  0.00000000E+00
  0.00000000E+00  0.00000000E+00  0.00000000E+00
  0.00000000E+00  0.00000000E+00  0.00000000E+00
  0.00000000E+00  0.00000000E+00  0.00000000E+00
  0.00000000E+00  0.00000000E+00  0.00000000E+00
  0.00000000E+00  0.00000000E+00  0.00000000E+00
  0.00000000E+00  0.00000000E+00  0.00000000E+00
  0.00000000E+00  0.00000000E+00  0.00000000E+00
  0.00000000E+00  0.00000000E+00  0.00000000E+00
  0.00000000E+00  0.00000000E+00  0.00000000E+00
  0.00000000E+00  0.00000000E+00  0.00000000E+00
  0.00000000E+00  0.00000000E+00  0.00000000E+00
  0.00000000E+00  0.00000000E+00  0.00000000E+00
  0.00000000E+00  0.00000000E+00  0.00000000E+00
  0.00000000E+00  0.00000000E+00  0.00000000E+00
  0.00000000E+00  0.00000000E+00  0.00000000E+00
  0.00000000E+00  0.00000000E+00  0.00000000E+00
  0.00000000E+00  0.00000000E+00  0.00000000E+00
  0.00000000E+00  0.00000000E+00  0.00000000E+00
  0.00000000E+00  0.00000000E+00  0.00000000E+00
  0.00000000E+00  0.00000000E+00  0.00000000E+00
  0.00000000E+00  0.00000000E+00  0.00000000E+00
  0.00000000E+00  0.00000000E+00  0.00000000E+00
  0.00000000E+00  0.00000000E+00  0.00000000E+00
  0.00000000E+00  0.00000000E+00  0.00000000E+00
  0.00000000E+00  0.00000000E+00  0.00000000E+00
  0.00000000E+00  0.00000000E+00  0.00000000E+00
  0.00000000E+00  0.00000000E+00  0.00000000E+00
  0.00000000E+00  0.00000000E+00  0.00000000E+00
  0.00000000E+00  0.00000000E+00  0.00000000E+00
