 C Pt                                   
   1.0000000000000000     
    17.0979999999999990    0.0000000000000000    0.0000000000000000
     0.0000000000000000   19.7420000000000009    0.0000000000000000
     0.0000000000000000    0.0000000000000000   20.0000000000000000
   C    Pt
   128    11
Direct
  0.1671391508346879  0.3442747520726528  0.3463036311631682
  0.1671444846836598  0.4692850365818038  0.3454260073725316
  0.1672441552796415  0.5944140663450146  0.3469747473489206
  0.1673139821312013  0.7194612000993014  0.3483712556097043
  0.1674054459089137  0.8444704447866148  0.3478970880514737
  0.1673801851011230  0.9694123275715062  0.3475299146784007
  0.1673010972192963  0.0942975193497775  0.3485301216650830
  0.1672437058374500  0.2192306765196361  0.3479243246026759
  0.0423064191525313  0.2817394517012468  0.3491561914631553
  0.0422825932940010  0.4068048244006852  0.3487687942433185
  0.0424424898819737  0.5319242119652438  0.3473554046770440
  0.0424113744981334  0.6569299807615645  0.3478019726799343
  0.0424195457358909  0.7819299266188854  0.3487393621928724
  0.0424257615372413  0.9069289995109341  0.3479205575026910
  0.0423822891673521  0.0318533352927944  0.3472155684340978
  0.0422750166505881  0.1567817785886303  0.3484097456998573
  0.9174529319175141  0.3442205276294134  0.3498489456727711
  0.9176847418664126  0.4694230088114297  0.3470785261964938
  0.9177643741973797  0.5945019098822534  0.3442020119665277
  0.9175603051117199  0.7194950316075953  0.3456746556497169
  0.9174195817878293  0.8444094345879984  0.3480462192836136
  0.9173786787997709  0.9693842097131514  0.3476860081391119
  0.9173046825462428  0.0943062313943284  0.3475024609636397
  0.9172933939338792  0.2192903106103445  0.3490456665925041
  0.7923949503216408  0.2815919810942432  0.3481711064068318
  0.7932506837911232  0.4068633027950365  0.3497312514522836
  0.7932443497082049  0.5321879671936723  0.3406440641887779
  0.7929091752097381  0.6571905053929887  0.3399795164750344
  0.7926178324455898  0.7820664744417619  0.3440610407855295
  0.7924079634719476  0.9069360672360752  0.3474957395784994
  0.7923009975343571  0.0318668246126995  0.3481267209905249
  0.7921902188208317  0.1567201157064440  0.3479835016291161
  0.6666487809009503  0.3430315713639061  0.3449166277027716
  0.6682780954135128  0.4700681482765532  0.3463903500526659
  0.6688818762944394  0.5946940352866071  0.3402446519633041
  0.6677438723939711  0.7200115922496066  0.3413399938031823
  0.6674063701935401  0.8446255103472714  0.3455593160352935
  0.6673196496142682  0.9693721784194721  0.3482304928225134
  0.6672310279919771  0.0942423992316510  0.3482012430361722
  0.6671241095570687  0.2189307849959425  0.3461006323737528
  0.5420410330576372  0.2812049387621727  0.3421799376720160
  0.5413785058274346  0.4062856494440555  0.3458831395585053
  0.5419027458199964  0.5320216279117168  0.3374377790227239
  0.5421703806690130  0.6580293256748631  0.3461413134968655
  0.5424611020837606  0.7824234972078640  0.3460026558398795
  0.5423776575426870  0.9070583921352516  0.3477236345174828
  0.5422547412879749  0.0318851305193201  0.3488431291656787
  0.5421065867665815  0.1566055873256111  0.3464649003610700
  0.4166461250444207  0.3439729697091273  0.3388539324476845
  0.4164482489688918  0.4687585821736425  0.3350612559298616
  0.4169298954718793  0.5945601227623266  0.3451134724658322
  0.4172256130105599  0.7198083738122856  0.3472861690100215
  0.4173977837487465  0.8445432508361825  0.3478683284855598
  0.4173052693598222  0.9693919660102178  0.3487002663266898
  0.4172131930908277  0.0943509670141814  0.3485995885657600
  0.4171131548429366  0.2192668290166868  0.3444599621216154
  0.2919955444367669  0.2816296274490172  0.3438253823161077
  0.2918856111886101  0.4066957362098514  0.3405241721849019
  0.2918785967372497  0.5318882607283593  0.3416027143553426
  0.2921071033855285  0.6569392897665128  0.3467201116525214
  0.2923536950230505  0.7819716531396742  0.3479930501555244
  0.2923642441432958  0.9069194134789517  0.3477511318650786
  0.2922555151588658  0.0318941896785291  0.3489211336691358
  0.2921714944790181  0.1568031024356981  0.3479258318801441
  0.0840213533005076  0.3442552596711867  0.3484640257033950
  0.0841213683158125  0.4693169940023341  0.3475024607024675
  0.0841846353627621  0.5944504554688979  0.3475859007557674
  0.0841316044373709  0.7194999901161613  0.3485837776843833
  0.0840458148984216  0.8444325047621501  0.3483559054429705
  0.0839738233126439  0.9693557660547284  0.3473096396786036
  0.0839000506751787  0.0943095097434316  0.3479402948252174
  0.0839068089380351  0.2192434764860070  0.3486850068641508
  0.9591304802613980  0.2816526521743787  0.3496281887473641
  0.9592211507478458  0.4068002429676504  0.3492611406592638
  0.9593962474544110  0.5319983260238259  0.3461885047142405
  0.9593383852997244  0.6570150282663845  0.3459400398114263
  0.9591917522948976  0.7820196806719579  0.3479567964610127
  0.9590705278687216  0.9069154604204879  0.3481888927130901
  0.9589608765837844  0.0318224702474147  0.3471745483879107
  0.9589776897642424  0.1567647663202380  0.3482736122951243
  0.8344562937672640  0.3439803055763749  0.3496016534351776
  0.8347863607499927  0.4697077319914519  0.3456368244192312
  0.8346655500294947  0.5945993555915050  0.3408220409212931
  0.8344368546828914  0.7196855372518393  0.3428969392870584
  0.8342094997831370  0.8445104066806365  0.3468153481027589
  0.8340652166555917  0.9693814736950648  0.3479634863758448
  0.8339693156960900  0.0942515320789676  0.3478483725801588
  0.8339481363469348  0.2192557286899876  0.3484653670181013
  0.7088348267654875  0.2813090225477468  0.3460783740937408
  0.7090241331464671  0.4064515561427784  0.3491328934778588
  0.7101272460554354  0.5325441246737816  0.3400068517679277
  0.7098102568988206  0.6573437427075004  0.3392666483206096
  0.7092510520753494  0.7821540134490377  0.3431392758903604
  0.7091500531535841  0.9070329470373859  0.3472036170589608
  0.7090221136327139  0.0317992337235318  0.3484895595548819
  0.7089523534467426  0.1565396654629654  0.3476046230072774
  0.5839600826901337  0.3431981164496243  0.3429467019309329
  0.5834866809486470  0.4699359602444409  0.3451560250996968
  0.5844213023610098  0.5944898858316544  0.3465024077672255
  0.5843696125557656  0.7202649080047409  0.3441829049202913
  0.5841843746441961  0.8447591604931280  0.3462782491733148
  0.5840635391210328  0.9694691637599825  0.3484108268274247
  0.5838982379461725  0.0942115951940928  0.3481416480230617
  0.5838312292240433  0.2189845755057790  0.3446699952334725
  0.4585846110241719  0.2815605879869587  0.3415607449378214
  0.4577155551572564  0.4065857421797820  0.3373263683421330
  0.4588970925403669  0.5317172405971975  0.3384275092249558
  0.4588071967895679  0.6575444847152502  0.3463198667694625
  0.4590582534350369  0.7821356265973287  0.3473786290417087
  0.4590313894751937  0.9070358779683406  0.3481127473842131
  0.4589426381972919  0.0318783652466546  0.3490058160659295
  0.4588508201668648  0.1567357940857553  0.3466768015847896
  0.3335441748802425  0.3441690232295228  0.3405058270298980
  0.3335519161763688  0.4692255623421565  0.3379955068678245
  0.3334381402038750  0.5944398368527750  0.3441422093117659
  0.3338772652648041  0.7194794037096262  0.3476583897704452
  0.3340259719055718  0.8444483228084525  0.3478454252795393
  0.3340216712178306  0.9693921022479891  0.3484648074804164
  0.3339063562406634  0.0943131258259274  0.3489010617534934
  0.3337282477855598  0.2192943926034696  0.3453554745051973
  0.2087909645250739  0.2817568775949090  0.3460450946397525
  0.2088102616401718  0.4067745971700716  0.3441661441911156
  0.2089622591627787  0.5318951228181993  0.3446512303749323
  0.2089687794317139  0.6569411842918069  0.3474630117642373
  0.2089872101943808  0.7819406379079863  0.3481531415585525
  0.2090178224437596  0.9068837286293299  0.3474930394078568
  0.2089382686796696  0.0318458132263365  0.3483727912893048
  0.2088753267760608  0.1568275820860584  0.3484031369299907
  0.4723535099909791  0.4968015611129760  0.5818548618095857
  0.5668829154543027  0.3957236463590794  0.5777134111138057
  0.6529078595980055  0.5235730240890470  0.5289285226110843
  0.5847808334508826  0.6109474785447271  0.4575652821596685
  0.4548145006706545  0.5466710942462034  0.4663535410554399
  0.5726952514710314  0.5799019684912852  0.6164253487877347
  0.3418953785018679  0.4788556816335117  0.5147035553656172
  0.7117080950530913  0.4166814435170187  0.5832493554206569
  0.7092826247877440  0.4247742377080040  0.4574106168076249
  0.4383230775227125  0.3803919086471397  0.5146068923497215
  0.5572278581830324  0.4381729622473721  0.4557790855689292

  0.00000000E+00  0.00000000E+00  0.00000000E+00
  0.00000000E+00  0.00000000E+00  0.00000000E+00
  0.00000000E+00  0.00000000E+00  0.00000000E+00
  0.00000000E+00  0.00000000E+00  0.00000000E+00
  0.00000000E+00  0.00000000E+00  0.00000000E+00
  0.00000000E+00  0.00000000E+00  0.00000000E+00
  0.00000000E+00  0.00000000E+00  0.00000000E+00
  0.00000000E+00  0.00000000E+00  0.00000000E+00
  0.00000000E+00  0.00000000E+00  0.00000000E+00
  0.00000000E+00  0.00000000E+00  0.00000000E+00
  0.00000000E+00  0.00000000E+00  0.00000000E+00
  0.00000000E+00  0.00000000E+00  0.00000000E+00
  0.00000000E+00  0.00000000E+00  0.00000000E+00
  0.00000000E+00  0.00000000E+00  0.00000000E+00
  0.00000000E+00  0.00000000E+00  0.00000000E+00
  0.00000000E+00  0.00000000E+00  0.00000000E+00
  0.00000000E+00  0.00000000E+00  0.00000000E+00
  0.00000000E+00  0.00000000E+00  0.00000000E+00
  0.00000000E+00  0.00000000E+00  0.00000000E+00
  0.00000000E+00  0.00000000E+00  0.00000000E+00
  0.00000000E+00  0.00000000E+00  0.00000000E+00
  0.00000000E+00  0.00000000E+00  0.00000000E+00
  0.00000000E+00  0.00000000E+00  0.00000000E+00
  0.00000000E+00  0.00000000E+00  0.00000000E+00
  0.00000000E+00  0.00000000E+00  0.00000000E+00
  0.00000000E+00  0.00000000E+00  0.00000000E+00
  0.00000000E+00  0.00000000E+00  0.00000000E+00
  0.00000000E+00  0.00000000E+00  0.00000000E+00
  0.00000000E+00  0.00000000E+00  0.00000000E+00
  0.00000000E+00  0.00000000E+00  0.00000000E+00
  0.00000000E+00  0.00000000E+00  0.00000000E+00
  0.00000000E+00  0.00000000E+00  0.00000000E+00
  0.00000000E+00  0.00000000E+00  0.00000000E+00
  0.00000000E+00  0.00000000E+00  0.00000000E+00
  0.00000000E+00  0.00000000E+00  0.00000000E+00
  0.00000000E+00  0.00000000E+00  0.00000000E+00
  0.00000000E+00  0.00000000E+00  0.00000000E+00
  0.00000000E+00  0.00000000E+00  0.00000000E+00
  0.00000000E+00  0.00000000E+00  0.00000000E+00
  0.00000000E+00  0.00000000E+00  0.00000000E+00
  0.00000000E+00  0.00000000E+00  0.00000000E+00
  0.00000000E+00  0.00000000E+00  0.00000000E+00
  0.00000000E+00  0.00000000E+00  0.00000000E+00
  0.00000000E+00  0.00000000E+00  0.00000000E+00
  0.00000000E+00  0.00000000E+00  0.00000000E+00
  0.00000000E+00  0.00000000E+00  0.00000000E+00
  0.00000000E+00  0.00000000E+00  0.00000000E+00
  0.00000000E+00  0.00000000E+00  0.00000000E+00
  0.00000000E+00  0.00000000E+00  0.00000000E+00
  0.00000000E+00  0.00000000E+00  0.00000000E+00
  0.00000000E+00  0.00000000E+00  0.00000000E+00
  0.00000000E+00  0.00000000E+00  0.00000000E+00
  0.00000000E+00  0.00000000E+00  0.00000000E+00
  0.00000000E+00  0.00000000E+00  0.00000000E+00
  0.00000000E+00  0.00000000E+00  0.00000000E+00
  0.00000000E+00  0.00000000E+00  0.00000000E+00
  0.00000000E+00  0.00000000E+00  0.00000000E+00
  0.00000000E+00  0.00000000E+00  0.00000000E+00
  0.00000000E+00  0.00000000E+00  0.00000000E+00
  0.00000000E+00  0.00000000E+00  0.00000000E+00
  0.00000000E+00  0.00000000E+00  0.00000000E+00
  0.00000000E+00  0.00000000E+00  0.00000000E+00
  0.00000000E+00  0.00000000E+00  0.00000000E+00
  0.00000000E+00  0.00000000E+00  0.00000000E+00
  0.00000000E+00  0.00000000E+00  0.00000000E+00
  0.00000000E+00  0.00000000E+00  0.00000000E+00
  0.00000000E+00  0.00000000E+00  0.00000000E+00
  0.00000000E+00  0.00000000E+00  0.00000000E+00
  0.00000000E+00  0.00000000E+00  0.00000000E+00
  0.00000000E+00  0.00000000E+00  0.00000000E+00
  0.00000000E+00  0.00000000E+00  0.00000000E+00
  0.00000000E+00  0.00000000E+00  0.00000000E+00
  0.00000000E+00  0.00000000E+00  0.00000000E+00
  0.00000000E+00  0.00000000E+00  0.00000000E+00
  0.00000000E+00  0.00000000E+00  0.00000000E+00
  0.00000000E+00  0.00000000E+00  0.00000000E+00
  0.00000000E+00  0.00000000E+00  0.00000000E+00
  0.00000000E+00  0.00000000E+00  0.00000000E+00
  0.00000000E+00  0.00000000E+00  0.00000000E+00
  0.00000000E+00  0.00000000E+00  0.00000000E+00
  0.00000000E+00  0.00000000E+00  0.00000000E+00
  0.00000000E+00  0.00000000E+00  0.00000000E+00
  0.00000000E+00  0.00000000E+00  0.00000000E+00
  0.00000000E+00  0.00000000E+00  0.00000000E+00
  0.00000000E+00  0.00000000E+00  0.00000000E+00
  0.00000000E+00  0.00000000E+00  0.00000000E+00
  0.00000000E+00  0.00000000E+00  0.00000000E+00
  0.00000000E+00  0.00000000E+00  0.00000000E+00
  0.00000000E+00  0.00000000E+00  0.00000000E+00
  0.00000000E+00  0.00000000E+00  0.00000000E+00
  0.00000000E+00  0.00000000E+00  0.00000000E+00
  0.00000000E+00  0.00000000E+00  0.00000000E+00
  0.00000000E+00  0.00000000E+00  0.00000000E+00
  0.00000000E+00  0.00000000E+00  0.00000000E+00
  0.00000000E+00  0.00000000E+00  0.00000000E+00
  0.00000000E+00  0.00000000E+00  0.00000000E+00
  0.00000000E+00  0.00000000E+00  0.00000000E+00
  0.00000000E+00  0.00000000E+00  0.00000000E+00
  0.00000000E+00  0.00000000E+00  0.00000000E+00
  0.00000000E+00  0.00000000E+00  0.00000000E+00
  0.00000000E+00  0.00000000E+00  0.00000000E+00
  0.00000000E+00  0.00000000E+00  0.00000000E+00
  0.00000000E+00  0.00000000E+00  0.00000000E+00
  0.00000000E+00  0.00000000E+00  0.00000000E+00
  0.00000000E+00  0.00000000E+00  0.00000000E+00
  0.00000000E+00  0.00000000E+00  0.00000000E+00
  0.00000000E+00  0.00000000E+00  0.00000000E+00
  0.00000000E+00  0.00000000E+00  0.00000000E+00
  0.00000000E+00  0.00000000E+00  0.00000000E+00
  0.00000000E+00  0.00000000E+00  0.00000000E+00
  0.00000000E+00  0.00000000E+00  0.00000000E+00
  0.00000000E+00  0.00000000E+00  0.00000000E+00
  0.00000000E+00  0.00000000E+00  0.00000000E+00
  0.00000000E+00  0.00000000E+00  0.00000000E+00
  0.00000000E+00  0.00000000E+00  0.00000000E+00
  0.00000000E+00  0.00000000E+00  0.00000000E+00
  0.00000000E+00  0.00000000E+00  0.00000000E+00
  0.00000000E+00  0.00000000E+00  0.00000000E+00
  0.00000000E+00  0.00000000E+00  0.00000000E+00
  0.00000000E+00  0.00000000E+00  0.00000000E+00
  0.00000000E+00  0.00000000E+00  0.00000000E+00
  0.00000000E+00  0.00000000E+00  0.00000000E+00
  0.00000000E+00  0.00000000E+00  0.00000000E+00
  0.00000000E+00  0.00000000E+00  0.00000000E+00
  0.00000000E+00  0.00000000E+00  0.00000000E+00
  0.00000000E+00  0.00000000E+00  0.00000000E+00
  0.00000000E+00  0.00000000E+00  0.00000000E+00
  0.00000000E+00  0.00000000E+00  0.00000000E+00
  0.00000000E+00  0.00000000E+00  0.00000000E+00
  0.00000000E+00  0.00000000E+00  0.00000000E+00
  0.00000000E+00  0.00000000E+00  0.00000000E+00
  0.00000000E+00  0.00000000E+00  0.00000000E+00
  0.00000000E+00  0.00000000E+00  0.00000000E+00
  0.00000000E+00  0.00000000E+00  0.00000000E+00
  0.00000000E+00  0.00000000E+00  0.00000000E+00
  0.00000000E+00  0.00000000E+00  0.00000000E+00
  0.00000000E+00  0.00000000E+00  0.00000000E+00
  0.00000000E+00  0.00000000E+00  0.00000000E+00
  0.00000000E+00  0.00000000E+00  0.00000000E+00
