 C Pt                                   
   1.0000000000000000     
    17.0979999999999990    0.0000000000000000    0.0000000000000000
     0.0000000000000000   19.7420000000000009    0.0000000000000000
     0.0000000000000000    0.0000000000000000   20.0000000000000000
   C    Pt
   128    11
Direct
  0.9170069137158249  0.7186908409786087  0.3708796134745596
  0.9167829618837066  0.8437616831155547  0.3718477969465635
  0.9166162837347419  0.9684925380430259  0.3717962173376529
  0.9166812337351175  0.0932379670912135  0.3716409991896236
  0.9167420069863946  0.2181649343873950  0.3720922654014095
  0.9168252512669132  0.3432459597833523  0.3720927446884332
  0.9169836447157631  0.4681431501925400  0.3714935168311574
  0.9168511558478294  0.5935657800409161  0.3701665758128986
  0.7925013272034187  0.6564356239053413  0.3675492630613868
  0.7920218815105735  0.7813505557862934  0.3708956409266583
  0.7917376215583966  0.9061133036911145  0.3722470556911064
  0.7917031714626878  0.0308632026616346  0.3717498424416854
  0.7916245893957961  0.1557486791505147  0.3717190802665150
  0.7919252229015427  0.2805372392740503  0.3714803501400064
  0.7922045135053444  0.4054417340253409  0.3708997604480162
  0.7927620052747564  0.5307593457671915  0.3709809962314021
  0.6679690302078513  0.7189497764932876  0.3686241785983198
  0.6667636595761846  0.8437930717325640  0.3717799498752098
  0.6666029309307243  0.9684914267290238  0.3722526520178926
  0.6665857498949300  0.0933794644759085  0.3718251342612600
  0.6668608246350581  0.2179705730185294  0.3712705370055717
  0.6671485809648651  0.3427563317900666  0.3689154426426789
  0.6672630417792286  0.4670802016346052  0.3660684155487834
  0.6673994768261410  0.5939126742182534  0.3674596943142465
  0.5412320897197964  0.6557814914957282  0.3644951244688690
  0.5413490667251724  0.7816204253747249  0.3700870135685903
  0.5416540187579031  0.9060665071212729  0.3711499769694588
  0.5415972023499236  0.0310392126805144  0.3720170283747256
  0.5415523487683750  0.1557104231562807  0.3720906393365998
  0.5418316178834595  0.2803630492907270  0.3710272271222727
  0.5430229685503341  0.4050144735919763  0.3672769766911153
  0.5423745390118051  0.5304929966212546  0.3659612605507274
  0.4160677383392892  0.7188809642239342  0.3645375916695346
  0.4166286330869022  0.8436970521349848  0.3693275555388763
  0.4165323659318163  0.9685637975337578  0.3714643297263502
  0.4165748212365714  0.0933483252626997  0.3721537226234138
  0.4166051415433223  0.2180850885401495  0.3720242936326849
  0.4162033410970387  0.3424107271106713  0.3731036562972870
  0.4160472964293235  0.4683192996716355  0.3759803076155412
  0.4170265753095724  0.5939077827768137  0.3634272217031542
  0.2911522236636572  0.6563985728464494  0.3752453007231760
  0.2915152206396588  0.7813173838471698  0.3703705146884531
  0.2915456749798136  0.9061981678679132  0.3710640351058194
  0.2916562249259703  0.0309891611391906  0.3717764931202023
  0.2914637481549234  0.1558251169509834  0.3719452589168998
  0.2914366589261614  0.2806263854555446  0.3714033257657578
  0.2909456027932467  0.4056055066631089  0.3696720701758103
  0.2904736315125535  0.5302302527817495  0.3711230145478120
  0.1661262466928549  0.7185529511792137  0.3719166235597851
  0.1665795136152605  0.8436397763927630  0.3720701744483992
  0.1666490067776698  0.9684471533805035  0.3717308619256250
  0.1664974237519918  0.0934546530337926  0.3717618301388185
  0.1665349109471681  0.2182394506594745  0.3713515061943888
  0.1664378360945806  0.3431752295270353  0.3704421894599614
  0.1661142470772491  0.4682430952788957  0.3695176316204950
  0.1657925821533177  0.5935152953048667  0.3701778128315154
  0.0415839901977294  0.6561189584236404  0.3710243603917924
  0.0416694609776384  0.7811723486258991  0.3717085589582154
  0.0415967777580976  0.9059306421167113  0.3718557699305436
  0.0415706828418377  0.0309935721592178  0.3717384482481900
  0.0416560154955878  0.1557693337310948  0.3717174705523407
  0.0416914115920593  0.2806830981020014  0.3715324936218554
  0.0416170434109252  0.4057654542095343  0.3708740305701029
  0.0415903104794835  0.5308411295844097  0.3705939446738157
  0.8337099576604308  0.7187876443131590  0.3697453762699582
  0.8334487076178181  0.8438208313870039  0.3719401114773248
  0.8333349616322305  0.9684881501276608  0.3719781865789058
  0.8333409722771618  0.0933267418830862  0.3716308653225494
  0.8332825419329388  0.2182227256873176  0.3718866855082061
  0.8336167764749740  0.3431093175702264  0.3718324000129431
  0.8338268420359124  0.4680205555017651  0.3713161593003582
  0.8339799310989707  0.5936095782690636  0.3690322635374108
  0.7097593569895910  0.6569823047318808  0.3663193349117192
  0.7087693073850017  0.7814437560478857  0.3704777226201275
  0.7082882133619043  0.9060359407333756  0.3723864774240763
  0.7081753386562506  0.0310197873070518  0.3719580075936693
  0.7083339557164564  0.1557903615279473  0.3715893232733459
  0.7087230984930514  0.2802848692496509  0.3707257730182252
  0.7089914658260537  0.4051129331147779  0.3683823527814878
  0.7090206528126424  0.5302498269914210  0.3714916120912586
  0.5836896233473206  0.7188823382457188  0.3718643486018812
  0.5832573018411897  0.8437167092703758  0.3711100884684415
  0.5831959856144533  0.9684904201958098  0.3718847791656858
  0.5832679449215808  0.0933989897367336  0.3720377490852411
  0.5833685664545082  0.2181284423379078  0.3716442448674002
  0.5838713395798023  0.3428305176408445  0.3685029588102238
  0.5845863605958438  0.4667506256730525  0.3639801872275901
  0.5838827816775430  0.5935630374186820  0.3606476903248763
  0.4571800945735217  0.6562126009730063  0.3608509242850330
  0.4580608716847648  0.7812452157694200  0.3671698441541617
  0.4582839505553695  0.9061239214270645  0.3707989541336180
  0.4582283191736138  0.0309472477255882  0.3719803874017983
  0.4583604355264048  0.1557161588705907  0.3721224045630065
  0.4582762058801942  0.2803799844396908  0.3719393832731493
  0.4591353362049973  0.4050881652851198  0.3754352078184741
  0.4583831887794707  0.5317981240154387  0.3683916258450425
  0.3333913222020707  0.7191670167629627  0.3696889902130004
  0.3332697036898037  0.8438499235103414  0.3698494299071662
  0.3332726141158123  0.9685537020049633  0.3714406833676200
  0.3332429612523973  0.0933698796619830  0.3719828407175260
  0.3332004623079037  0.2182240717668928  0.3720899901862759
  0.3330951490638363  0.3429681488357314  0.3712032742411573
  0.3317853944706665  0.4680393587063397  0.3709508057640807
  0.3336229528942146  0.5932920005766235  0.3740349346534966
  0.2072770910797075  0.6561093226707529  0.3726021162122980
  0.2081121245790551  0.7812319504560079  0.3718646672437788
  0.2083327599713228  0.9060091446421772  0.3716903326820381
  0.2082905272828208  0.0308981931124678  0.3717656464832956
  0.2082355733878977  0.1558852859150619  0.3716421238482663
  0.2080856708094396  0.2807186752532460  0.3710320762198604
  0.2078493176707993  0.4057400237903851  0.3694225064611964
  0.2074717076149101  0.5307722367476360  0.3698667093036521
  0.0830332929733977  0.7185914099672235  0.3714476519410385
  0.0832912740210667  0.8436079974465553  0.3720423414618002
  0.0833554132279171  0.9684499800470870  0.3718352189870405
  0.0831842418747543  0.0934979170387858  0.3716541530622218
  0.0832143638370513  0.2181700973691350  0.3715533699577611
  0.0832888743230187  0.3432776410267597  0.3709844381825610
  0.0830414640141176  0.4682811736077199  0.3702140041576539
  0.0829767170268952  0.5935386495657441  0.3702557014820563
  0.9585723756368574  0.6561647331640443  0.3706682569280298
  0.9585360813976038  0.7812288793687152  0.3716429078075733
  0.9583821163713656  0.9060950009797322  0.3717774735094543
  0.9581828501489921  0.0309664194748273  0.3716528481509267
  0.9583890557539833  0.1557665336640250  0.3719134281105778
  0.9582938347774828  0.2808089241058578  0.3719294280513940
  0.9584099056029646  0.4056278797985806  0.3716038511664784
  0.9584856028375041  0.5307829334879173  0.3710850770427865
  0.6755133826127255  0.5605112480687314  0.6019132110945460
  0.5538764634020072  0.4880395239697212  0.6020961823579382
  0.6795844943385522  0.5695365938413515  0.4769272686165496
  0.4344814993726812  0.4300694165343403  0.4797612289770581
  0.5483778750569061  0.6262533299323660  0.5979756523415192
  0.3257340776914789  0.6110003437668526  0.4809707305486883
  0.4203427583264494  0.4333854642831190  0.6048647861857593
  0.5615798821807103  0.6636548017110122  0.4775376357953158
  0.4143423186862956  0.5559999264847145  0.5672654211030639
  0.4310580278314743  0.6828228869790789  0.5392110837108846
  0.5285797116917978  0.5308149062130852  0.4812857150554087

  0.00000000E+00  0.00000000E+00  0.00000000E+00
  0.00000000E+00  0.00000000E+00  0.00000000E+00
  0.00000000E+00  0.00000000E+00  0.00000000E+00
  0.00000000E+00  0.00000000E+00  0.00000000E+00
  0.00000000E+00  0.00000000E+00  0.00000000E+00
  0.00000000E+00  0.00000000E+00  0.00000000E+00
  0.00000000E+00  0.00000000E+00  0.00000000E+00
  0.00000000E+00  0.00000000E+00  0.00000000E+00
  0.00000000E+00  0.00000000E+00  0.00000000E+00
  0.00000000E+00  0.00000000E+00  0.00000000E+00
  0.00000000E+00  0.00000000E+00  0.00000000E+00
  0.00000000E+00  0.00000000E+00  0.00000000E+00
  0.00000000E+00  0.00000000E+00  0.00000000E+00
  0.00000000E+00  0.00000000E+00  0.00000000E+00
  0.00000000E+00  0.00000000E+00  0.00000000E+00
  0.00000000E+00  0.00000000E+00  0.00000000E+00
  0.00000000E+00  0.00000000E+00  0.00000000E+00
  0.00000000E+00  0.00000000E+00  0.00000000E+00
  0.00000000E+00  0.00000000E+00  0.00000000E+00
  0.00000000E+00  0.00000000E+00  0.00000000E+00
  0.00000000E+00  0.00000000E+00  0.00000000E+00
  0.00000000E+00  0.00000000E+00  0.00000000E+00
  0.00000000E+00  0.00000000E+00  0.00000000E+00
  0.00000000E+00  0.00000000E+00  0.00000000E+00
  0.00000000E+00  0.00000000E+00  0.00000000E+00
  0.00000000E+00  0.00000000E+00  0.00000000E+00
  0.00000000E+00  0.00000000E+00  0.00000000E+00
  0.00000000E+00  0.00000000E+00  0.00000000E+00
  0.00000000E+00  0.00000000E+00  0.00000000E+00
  0.00000000E+00  0.00000000E+00  0.00000000E+00
  0.00000000E+00  0.00000000E+00  0.00000000E+00
  0.00000000E+00  0.00000000E+00  0.00000000E+00
  0.00000000E+00  0.00000000E+00  0.00000000E+00
  0.00000000E+00  0.00000000E+00  0.00000000E+00
  0.00000000E+00  0.00000000E+00  0.00000000E+00
  0.00000000E+00  0.00000000E+00  0.00000000E+00
  0.00000000E+00  0.00000000E+00  0.00000000E+00
  0.00000000E+00  0.00000000E+00  0.00000000E+00
  0.00000000E+00  0.00000000E+00  0.00000000E+00
  0.00000000E+00  0.00000000E+00  0.00000000E+00
  0.00000000E+00  0.00000000E+00  0.00000000E+00
  0.00000000E+00  0.00000000E+00  0.00000000E+00
  0.00000000E+00  0.00000000E+00  0.00000000E+00
  0.00000000E+00  0.00000000E+00  0.00000000E+00
  0.00000000E+00  0.00000000E+00  0.00000000E+00
  0.00000000E+00  0.00000000E+00  0.00000000E+00
  0.00000000E+00  0.00000000E+00  0.00000000E+00
  0.00000000E+00  0.00000000E+00  0.00000000E+00
  0.00000000E+00  0.00000000E+00  0.00000000E+00
  0.00000000E+00  0.00000000E+00  0.00000000E+00
  0.00000000E+00  0.00000000E+00  0.00000000E+00
  0.00000000E+00  0.00000000E+00  0.00000000E+00
  0.00000000E+00  0.00000000E+00  0.00000000E+00
  0.00000000E+00  0.00000000E+00  0.00000000E+00
  0.00000000E+00  0.00000000E+00  0.00000000E+00
  0.00000000E+00  0.00000000E+00  0.00000000E+00
  0.00000000E+00  0.00000000E+00  0.00000000E+00
  0.00000000E+00  0.00000000E+00  0.00000000E+00
  0.00000000E+00  0.00000000E+00  0.00000000E+00
  0.00000000E+00  0.00000000E+00  0.00000000E+00
  0.00000000E+00  0.00000000E+00  0.00000000E+00
  0.00000000E+00  0.00000000E+00  0.00000000E+00
  0.00000000E+00  0.00000000E+00  0.00000000E+00
  0.00000000E+00  0.00000000E+00  0.00000000E+00
  0.00000000E+00  0.00000000E+00  0.00000000E+00
  0.00000000E+00  0.00000000E+00  0.00000000E+00
  0.00000000E+00  0.00000000E+00  0.00000000E+00
  0.00000000E+00  0.00000000E+00  0.00000000E+00
  0.00000000E+00  0.00000000E+00  0.00000000E+00
  0.00000000E+00  0.00000000E+00  0.00000000E+00
  0.00000000E+00  0.00000000E+00  0.00000000E+00
  0.00000000E+00  0.00000000E+00  0.00000000E+00
  0.00000000E+00  0.00000000E+00  0.00000000E+00
  0.00000000E+00  0.00000000E+00  0.00000000E+00
  0.00000000E+00  0.00000000E+00  0.00000000E+00
  0.00000000E+00  0.00000000E+00  0.00000000E+00
  0.00000000E+00  0.00000000E+00  0.00000000E+00
  0.00000000E+00  0.00000000E+00  0.00000000E+00
  0.00000000E+00  0.00000000E+00  0.00000000E+00
  0.00000000E+00  0.00000000E+00  0.00000000E+00
  0.00000000E+00  0.00000000E+00  0.00000000E+00
  0.00000000E+00  0.00000000E+00  0.00000000E+00
  0.00000000E+00  0.00000000E+00  0.00000000E+00
  0.00000000E+00  0.00000000E+00  0.00000000E+00
  0.00000000E+00  0.00000000E+00  0.00000000E+00
  0.00000000E+00  0.00000000E+00  0.00000000E+00
  0.00000000E+00  0.00000000E+00  0.00000000E+00
  0.00000000E+00  0.00000000E+00  0.00000000E+00
  0.00000000E+00  0.00000000E+00  0.00000000E+00
  0.00000000E+00  0.00000000E+00  0.00000000E+00
  0.00000000E+00  0.00000000E+00  0.00000000E+00
  0.00000000E+00  0.00000000E+00  0.00000000E+00
  0.00000000E+00  0.00000000E+00  0.00000000E+00
  0.00000000E+00  0.00000000E+00  0.00000000E+00
  0.00000000E+00  0.00000000E+00  0.00000000E+00
  0.00000000E+00  0.00000000E+00  0.00000000E+00
  0.00000000E+00  0.00000000E+00  0.00000000E+00
  0.00000000E+00  0.00000000E+00  0.00000000E+00
  0.00000000E+00  0.00000000E+00  0.00000000E+00
  0.00000000E+00  0.00000000E+00  0.00000000E+00
  0.00000000E+00  0.00000000E+00  0.00000000E+00
  0.00000000E+00  0.00000000E+00  0.00000000E+00
  0.00000000E+00  0.00000000E+00  0.00000000E+00
  0.00000000E+00  0.00000000E+00  0.00000000E+00
  0.00000000E+00  0.00000000E+00  0.00000000E+00
  0.00000000E+00  0.00000000E+00  0.00000000E+00
  0.00000000E+00  0.00000000E+00  0.00000000E+00
  0.00000000E+00  0.00000000E+00  0.00000000E+00
  0.00000000E+00  0.00000000E+00  0.00000000E+00
  0.00000000E+00  0.00000000E+00  0.00000000E+00
  0.00000000E+00  0.00000000E+00  0.00000000E+00
  0.00000000E+00  0.00000000E+00  0.00000000E+00
  0.00000000E+00  0.00000000E+00  0.00000000E+00
  0.00000000E+00  0.00000000E+00  0.00000000E+00
  0.00000000E+00  0.00000000E+00  0.00000000E+00
  0.00000000E+00  0.00000000E+00  0.00000000E+00
  0.00000000E+00  0.00000000E+00  0.00000000E+00
  0.00000000E+00  0.00000000E+00  0.00000000E+00
  0.00000000E+00  0.00000000E+00  0.00000000E+00
  0.00000000E+00  0.00000000E+00  0.00000000E+00
  0.00000000E+00  0.00000000E+00  0.00000000E+00
  0.00000000E+00  0.00000000E+00  0.00000000E+00
  0.00000000E+00  0.00000000E+00  0.00000000E+00
  0.00000000E+00  0.00000000E+00  0.00000000E+00
  0.00000000E+00  0.00000000E+00  0.00000000E+00
  0.00000000E+00  0.00000000E+00  0.00000000E+00
  0.00000000E+00  0.00000000E+00  0.00000000E+00
  0.00000000E+00  0.00000000E+00  0.00000000E+00
  0.00000000E+00  0.00000000E+00  0.00000000E+00
  0.00000000E+00  0.00000000E+00  0.00000000E+00
  0.00000000E+00  0.00000000E+00  0.00000000E+00
  0.00000000E+00  0.00000000E+00  0.00000000E+00
  0.00000000E+00  0.00000000E+00  0.00000000E+00
  0.00000000E+00  0.00000000E+00  0.00000000E+00
  0.00000000E+00  0.00000000E+00  0.00000000E+00
  0.00000000E+00  0.00000000E+00  0.00000000E+00
  0.00000000E+00  0.00000000E+00  0.00000000E+00
  0.00000000E+00  0.00000000E+00  0.00000000E+00
  0.00000000E+00  0.00000000E+00  0.00000000E+00
