 C Pt                                   
   1.0000000000000000     
    17.0979999999999990    0.0000000000000000    0.0000000000000000
     0.0000000000000000   19.7420000000000009    0.0000000000000000
     0.0000000000000000    0.0000000000000000   20.0000000000000000
   C    Pt
   128    11
Direct
  0.1664776560846499  0.3439778448855927  0.3513109071352378
  0.1664992721130446  0.4690162938409908  0.3500594028580121
  0.1664146974829608  0.5942032680967276  0.3490529767629320
  0.1664969615504555  0.7193514426885431  0.3511257221290784
  0.1664766212523550  0.8444083045640707  0.3515830074248452
  0.1664916380463623  0.9691868877092273  0.3505631438207841
  0.1665319586445906  0.0940658682884402  0.3501061142705718
  0.1664295309024256  0.2190730085368095  0.3508616348500909
  0.0416865609089718  0.2815246595690158  0.3504534538247444
  0.0416633623036334  0.4065533417158445  0.3500445233628024
  0.0418405278724228  0.5316042706067283  0.3498900379308185
  0.0417358649356337  0.6568025380766027  0.3510677534378220
  0.0415746864279679  0.7818226144523599  0.3518066390946678
  0.0415544833775180  0.9067374663810877  0.3511039906237549
  0.0415195699066041  0.0316670556825932  0.3501319438568893
  0.0415618910736510  0.1566142987556011  0.3502445024977719
  0.9168366722880218  0.3440237868244306  0.3490285108036765
  0.9170221889665326  0.4691404079450452  0.3483835211733844
  0.9171717647040395  0.5942188774186750  0.3496437393215509
  0.9168492450233346  0.7192838275572019  0.3515134745206640
  0.9166099019665594  0.8443128049565706  0.3517029337437685
  0.9165344475274054  0.9692534677512885  0.3509249133446515
  0.9166165050313388  0.0941065908439111  0.3503242478268986
  0.9167485397457974  0.2190188866200338  0.3499798706777710
  0.7919517555354354  0.2814669669914550  0.3488431028410616
  0.7918924325662410  0.4063525883027722  0.3473998875884404
  0.7933431697951717  0.5316935492077519  0.3482072359438130
  0.7924127422159812  0.6568532359709808  0.3499528726019246
  0.7916222147818469  0.7819806819294910  0.3505573414958513
  0.7916237235063793  0.9068489956694695  0.3513023579930801
  0.7916860539196134  0.0317284644438856  0.3508618820327811
  0.7917402045882133  0.1565630836446567  0.3502602947005562
  0.6672343450040644  0.3437723238066026  0.3492106043748984
  0.6671197169279017  0.4688736423828646  0.3511269766765995
  0.6661456824032218  0.5946893243973052  0.3406216049435822
  0.6664576677443254  0.7199153703503690  0.3467034655882575
  0.6666844275943931  0.8445236344652846  0.3500008038011822
  0.6665857325094910  0.9693475055127067  0.3512146857458751
  0.6666530935332614  0.0941825214139696  0.3508594696747493
  0.6667820175503785  0.2190306760582627  0.3501831681730535
  0.5419356484522053  0.2815457711028300  0.3526663031764822
  0.5426087719002649  0.4067914578261321  0.3573648431449148
  0.5429535143332691  0.5312241850284813  0.3388340744304866
  0.5423864113076223  0.6570401542971251  0.3407092928817846
  0.5415422416084864  0.7820589949984222  0.3484987975131451
  0.5415745164486769  0.9068519205057431  0.3511684435174829
  0.5415238815075536  0.0318382022679939  0.3510222244162868
  0.5415524142514289  0.1566867893393591  0.3511326074758182
  0.4159225555494931  0.3431683581606008  0.3568616127841623
  0.4154217026478652  0.4692293590311117  0.3554550395484417
  0.4153825094260640  0.5940020712264938  0.3471022435939197
  0.4164493466309134  0.7198246511531882  0.3555010666834819
  0.4165205811792373  0.8446079253849152  0.3522234924745303
  0.4163888534194592  0.9693950631510555  0.3511100371907773
  0.4164291253785122  0.0942246242608430  0.3507915752905369
  0.4164518180646928  0.2190914495907694  0.3521405960560117
  0.2913344424656676  0.2813879620352391  0.3524648480378090
  0.2912860024389030  0.4065354292541669  0.3526873364916348
  0.2909743964623783  0.5315549758662400  0.3474581484887669
  0.2911815225499964  0.6567676954511549  0.3488765462531548
  0.2912670704565486  0.7819092950257613  0.3527115978774045
  0.2914970025638507  0.9067850977892039  0.3517236269257329
  0.2914649854961441  0.0317373170640882  0.3504451452906777
  0.2914155274605790  0.1565152682726672  0.3509304663827883
  0.0834053587070687  0.3440213466192865  0.3506673460793502
  0.0834958145833752  0.4690963361040722  0.3500217251865301
  0.0834432021706078  0.5942529752149368  0.3501532349694512
  0.0832556313572831  0.7193590738297756  0.3515086862193411
  0.0831971886003809  0.8443447652835120  0.3515043269110300
  0.0832229348040694  0.9691958454191075  0.3504927540974911
  0.0832093855082619  0.0940536470891256  0.3500270942703156
  0.0832705524144083  0.2190435419881366  0.3505777333340929
  0.9583723600237100  0.2815239140857896  0.3498789326897697
  0.9585425947335705  0.4065612224452751  0.3491081990423713
  0.9586733129704790  0.5316795012332093  0.3493761318910246
  0.9585862379139504  0.6568586058997070  0.3509550574959717
  0.9583615304881712  0.7817954287632077  0.3518285520458018
  0.9582618373968997  0.9067402246876368  0.3513455417189649
  0.9583143267828725  0.0316883135437195  0.3503705136811465
  0.9583641517772321  0.1565048920593349  0.3502063446515576
  0.8335785901915773  0.3439711335279855  0.3481139493774297
  0.8339522954843469  0.4692392425156919  0.3474163955042484
  0.8342141688839944  0.5941797636833224  0.3487252539424109
  0.8335008754246257  0.7193714138292387  0.3509932042840663
  0.8332554930700585  0.8444174563295788  0.3513632288055230
  0.8333055139465912  0.9692955046924728  0.3511196018184879
  0.8333560275389553  0.0940833737538199  0.3505231861432876
  0.8334895738200040  0.2189644310791777  0.3497529110866249
  0.7086771966523920  0.2813087850218563  0.3489752872681207
  0.7092876255365894  0.4058504407438355  0.3488226312533440
  0.7089667437428532  0.5321943046259414  0.3505202099767775
  0.7082933833698044  0.6570928624237105  0.3474209018686548
  0.7084533337749616  0.7822554251323224  0.3491682746089915
  0.7082977370681002  0.9068869327740724  0.3510538134288255
  0.7083222918100252  0.0317652807170562  0.3510460956787519
  0.7084334191482614  0.1565901298869284  0.3504193119130791
  0.5840655800047535  0.3433996773534793  0.3529372924202976
  0.5835357017596051  0.4699267294045722  0.3448409799359726
  0.5837139363431575  0.5945473431612377  0.3354513568598508
  0.5831195931715101  0.7194425610833690  0.3442153698088863
  0.5832784613607114  0.8443916767351829  0.3498969441300723
  0.5832805307847051  0.9693389527221447  0.3512582651282898
  0.5832083944473392  0.0942556089128935  0.3509362915046255
  0.5833481606829122  0.2191445921753860  0.3511260582940431
  0.4580623771720082  0.2813378237723622  0.3538973186262747
  0.4577227946690899  0.4061760235172298  0.3613911095077379
  0.4588262757101170  0.5315960160221637  0.3496064580135902
  0.4588801002103555  0.6568376625610437  0.3505991128045728
  0.4586331699203623  0.7825488353028994  0.3520302366310908
  0.4582889455317008  0.9070305378427348  0.3514029589227550
  0.4581904856021485  0.0318635139283103  0.3508757414141683
  0.4582295890853471  0.1566145357328205  0.3512233265365849
  0.3331166816465903  0.3437955342257398  0.3543272943124504
  0.3325157736446754  0.4691442783916917  0.3514781692298303
  0.3325534836869070  0.5940675778223815  0.3463012341328967
  0.3324794408308497  0.7193123998967115  0.3528798750463965
  0.3331571501715538  0.8444329355846040  0.3526420739581725
  0.3331854162379312  0.9693298244251055  0.3510542110667340
  0.3331215237200767  0.0941296040717470  0.3505981778175741
  0.3331890665250385  0.2190198294796422  0.3519361423941378
  0.2081920714004297  0.2814898115411652  0.3514646311235024
  0.2083605144261416  0.4065043903464058  0.3511908467339136
  0.2081687359906351  0.5316199473505321  0.3485157234524507
  0.2081008894561641  0.6568152446838618  0.3494397906538629
  0.2080882116198602  0.7818582380781314  0.3517603711521469
  0.2081040735877948  0.9068008461909903  0.3513175272805907
  0.2081906049389375  0.0317193089676509  0.3502059679632467
  0.2082210254060018  0.1565225590151983  0.3506090573776659
  0.5310246755375594  0.5039290303561823  0.5678615797436599
  0.6385493859392867  0.4175354697011233  0.5337736489573716
  0.5144167074389842  0.4193971847540413  0.4628562180129985
  0.4391554097956317  0.6710594129606021  0.4627839032092369
  0.6845165199807289  0.5159401345737749  0.4584703112182059
  0.4332582886817367  0.6036466188078604  0.5754168954288051
  0.5664388493157456  0.6308324052963080  0.5206328650559048
  0.4586769265975244  0.5417156318817256  0.4591399112028725
  0.6450386876368071  0.4750871916814780  0.6465197156023730
  0.6985032650975026  0.6476079819330377  0.4674061045245447
  0.6871928780167069  0.5743318634594761  0.5724828974217141

  0.00000000E+00  0.00000000E+00  0.00000000E+00
  0.00000000E+00  0.00000000E+00  0.00000000E+00
  0.00000000E+00  0.00000000E+00  0.00000000E+00
  0.00000000E+00  0.00000000E+00  0.00000000E+00
  0.00000000E+00  0.00000000E+00  0.00000000E+00
  0.00000000E+00  0.00000000E+00  0.00000000E+00
  0.00000000E+00  0.00000000E+00  0.00000000E+00
  0.00000000E+00  0.00000000E+00  0.00000000E+00
  0.00000000E+00  0.00000000E+00  0.00000000E+00
  0.00000000E+00  0.00000000E+00  0.00000000E+00
  0.00000000E+00  0.00000000E+00  0.00000000E+00
  0.00000000E+00  0.00000000E+00  0.00000000E+00
  0.00000000E+00  0.00000000E+00  0.00000000E+00
  0.00000000E+00  0.00000000E+00  0.00000000E+00
  0.00000000E+00  0.00000000E+00  0.00000000E+00
  0.00000000E+00  0.00000000E+00  0.00000000E+00
  0.00000000E+00  0.00000000E+00  0.00000000E+00
  0.00000000E+00  0.00000000E+00  0.00000000E+00
  0.00000000E+00  0.00000000E+00  0.00000000E+00
  0.00000000E+00  0.00000000E+00  0.00000000E+00
  0.00000000E+00  0.00000000E+00  0.00000000E+00
  0.00000000E+00  0.00000000E+00  0.00000000E+00
  0.00000000E+00  0.00000000E+00  0.00000000E+00
  0.00000000E+00  0.00000000E+00  0.00000000E+00
  0.00000000E+00  0.00000000E+00  0.00000000E+00
  0.00000000E+00  0.00000000E+00  0.00000000E+00
  0.00000000E+00  0.00000000E+00  0.00000000E+00
  0.00000000E+00  0.00000000E+00  0.00000000E+00
  0.00000000E+00  0.00000000E+00  0.00000000E+00
  0.00000000E+00  0.00000000E+00  0.00000000E+00
  0.00000000E+00  0.00000000E+00  0.00000000E+00
  0.00000000E+00  0.00000000E+00  0.00000000E+00
  0.00000000E+00  0.00000000E+00  0.00000000E+00
  0.00000000E+00  0.00000000E+00  0.00000000E+00
  0.00000000E+00  0.00000000E+00  0.00000000E+00
  0.00000000E+00  0.00000000E+00  0.00000000E+00
  0.00000000E+00  0.00000000E+00  0.00000000E+00
  0.00000000E+00  0.00000000E+00  0.00000000E+00
  0.00000000E+00  0.00000000E+00  0.00000000E+00
  0.00000000E+00  0.00000000E+00  0.00000000E+00
  0.00000000E+00  0.00000000E+00  0.00000000E+00
  0.00000000E+00  0.00000000E+00  0.00000000E+00
  0.00000000E+00  0.00000000E+00  0.00000000E+00
  0.00000000E+00  0.00000000E+00  0.00000000E+00
  0.00000000E+00  0.00000000E+00  0.00000000E+00
  0.00000000E+00  0.00000000E+00  0.00000000E+00
  0.00000000E+00  0.00000000E+00  0.00000000E+00
  0.00000000E+00  0.00000000E+00  0.00000000E+00
  0.00000000E+00  0.00000000E+00  0.00000000E+00
  0.00000000E+00  0.00000000E+00  0.00000000E+00
  0.00000000E+00  0.00000000E+00  0.00000000E+00
  0.00000000E+00  0.00000000E+00  0.00000000E+00
  0.00000000E+00  0.00000000E+00  0.00000000E+00
  0.00000000E+00  0.00000000E+00  0.00000000E+00
  0.00000000E+00  0.00000000E+00  0.00000000E+00
  0.00000000E+00  0.00000000E+00  0.00000000E+00
  0.00000000E+00  0.00000000E+00  0.00000000E+00
  0.00000000E+00  0.00000000E+00  0.00000000E+00
  0.00000000E+00  0.00000000E+00  0.00000000E+00
  0.00000000E+00  0.00000000E+00  0.00000000E+00
  0.00000000E+00  0.00000000E+00  0.00000000E+00
  0.00000000E+00  0.00000000E+00  0.00000000E+00
  0.00000000E+00  0.00000000E+00  0.00000000E+00
  0.00000000E+00  0.00000000E+00  0.00000000E+00
  0.00000000E+00  0.00000000E+00  0.00000000E+00
  0.00000000E+00  0.00000000E+00  0.00000000E+00
  0.00000000E+00  0.00000000E+00  0.00000000E+00
  0.00000000E+00  0.00000000E+00  0.00000000E+00
  0.00000000E+00  0.00000000E+00  0.00000000E+00
  0.00000000E+00  0.00000000E+00  0.00000000E+00
  0.00000000E+00  0.00000000E+00  0.00000000E+00
  0.00000000E+00  0.00000000E+00  0.00000000E+00
  0.00000000E+00  0.00000000E+00  0.00000000E+00
  0.00000000E+00  0.00000000E+00  0.00000000E+00
  0.00000000E+00  0.00000000E+00  0.00000000E+00
  0.00000000E+00  0.00000000E+00  0.00000000E+00
  0.00000000E+00  0.00000000E+00  0.00000000E+00
  0.00000000E+00  0.00000000E+00  0.00000000E+00
  0.00000000E+00  0.00000000E+00  0.00000000E+00
  0.00000000E+00  0.00000000E+00  0.00000000E+00
  0.00000000E+00  0.00000000E+00  0.00000000E+00
  0.00000000E+00  0.00000000E+00  0.00000000E+00
  0.00000000E+00  0.00000000E+00  0.00000000E+00
  0.00000000E+00  0.00000000E+00  0.00000000E+00
  0.00000000E+00  0.00000000E+00  0.00000000E+00
  0.00000000E+00  0.00000000E+00  0.00000000E+00
  0.00000000E+00  0.00000000E+00  0.00000000E+00
  0.00000000E+00  0.00000000E+00  0.00000000E+00
  0.00000000E+00  0.00000000E+00  0.00000000E+00
  0.00000000E+00  0.00000000E+00  0.00000000E+00
  0.00000000E+00  0.00000000E+00  0.00000000E+00
  0.00000000E+00  0.00000000E+00  0.00000000E+00
  0.00000000E+00  0.00000000E+00  0.00000000E+00
  0.00000000E+00  0.00000000E+00  0.00000000E+00
  0.00000000E+00  0.00000000E+00  0.00000000E+00
  0.00000000E+00  0.00000000E+00  0.00000000E+00
  0.00000000E+00  0.00000000E+00  0.00000000E+00
  0.00000000E+00  0.00000000E+00  0.00000000E+00
  0.00000000E+00  0.00000000E+00  0.00000000E+00
  0.00000000E+00  0.00000000E+00  0.00000000E+00
  0.00000000E+00  0.00000000E+00  0.00000000E+00
  0.00000000E+00  0.00000000E+00  0.00000000E+00
  0.00000000E+00  0.00000000E+00  0.00000000E+00
  0.00000000E+00  0.00000000E+00  0.00000000E+00
  0.00000000E+00  0.00000000E+00  0.00000000E+00
  0.00000000E+00  0.00000000E+00  0.00000000E+00
  0.00000000E+00  0.00000000E+00  0.00000000E+00
  0.00000000E+00  0.00000000E+00  0.00000000E+00
  0.00000000E+00  0.00000000E+00  0.00000000E+00
  0.00000000E+00  0.00000000E+00  0.00000000E+00
  0.00000000E+00  0.00000000E+00  0.00000000E+00
  0.00000000E+00  0.00000000E+00  0.00000000E+00
  0.00000000E+00  0.00000000E+00  0.00000000E+00
  0.00000000E+00  0.00000000E+00  0.00000000E+00
  0.00000000E+00  0.00000000E+00  0.00000000E+00
  0.00000000E+00  0.00000000E+00  0.00000000E+00
  0.00000000E+00  0.00000000E+00  0.00000000E+00
  0.00000000E+00  0.00000000E+00  0.00000000E+00
  0.00000000E+00  0.00000000E+00  0.00000000E+00
  0.00000000E+00  0.00000000E+00  0.00000000E+00
  0.00000000E+00  0.00000000E+00  0.00000000E+00
  0.00000000E+00  0.00000000E+00  0.00000000E+00
  0.00000000E+00  0.00000000E+00  0.00000000E+00
  0.00000000E+00  0.00000000E+00  0.00000000E+00
  0.00000000E+00  0.00000000E+00  0.00000000E+00
  0.00000000E+00  0.00000000E+00  0.00000000E+00
  0.00000000E+00  0.00000000E+00  0.00000000E+00
  0.00000000E+00  0.00000000E+00  0.00000000E+00
  0.00000000E+00  0.00000000E+00  0.00000000E+00
  0.00000000E+00  0.00000000E+00  0.00000000E+00
  0.00000000E+00  0.00000000E+00  0.00000000E+00
  0.00000000E+00  0.00000000E+00  0.00000000E+00
  0.00000000E+00  0.00000000E+00  0.00000000E+00
  0.00000000E+00  0.00000000E+00  0.00000000E+00
  0.00000000E+00  0.00000000E+00  0.00000000E+00
  0.00000000E+00  0.00000000E+00  0.00000000E+00
  0.00000000E+00  0.00000000E+00  0.00000000E+00
  0.00000000E+00  0.00000000E+00  0.00000000E+00
  0.00000000E+00  0.00000000E+00  0.00000000E+00
