 C Pt                                   
   1.0000000000000000     
    17.0979999999999990    0.0000000000000000    0.0000000000000000
     0.0000000000000000   19.7420000000000009    0.0000000000000000
     0.0000000000000000    0.0000000000000000   20.0000000000000000
   C    Pt
   128    11
Direct
  0.9170713584089839  0.7182759756775268  0.3671749395051983
  0.9170091032912798  0.8434838759084436  0.3666155506961287
  0.9167753971718150  0.9683225186344028  0.3651529922449120
  0.9167588419301209  0.0932138747479493  0.3653077971923908
  0.9168771916592576  0.2181453378444800  0.3658943296640975
  0.9170060348687866  0.3431033430458574  0.3663237949672290
  0.9171593846799251  0.4680545731004117  0.3655467874397043
  0.9171896602526187  0.5930947199896501  0.3657275137677142
  0.7926297157136067  0.6556308812547860  0.3635453476535704
  0.7924153924177452  0.7808257927897292  0.3662997879709757
  0.7920317512876144  0.9057708789186621  0.3657117853183280
  0.7918775350533310  0.0307841206121590  0.3652386507422031
  0.7917891014198873  0.1556317414069367  0.3655997490444743
  0.7919539531545521  0.2805427879110797  0.3650856019020368
  0.7922767409864395  0.4053910551292185  0.3626473378672049
  0.7926237068834143  0.5304203227533892  0.3611538243680021
  0.6684950368731568  0.7181374333324060  0.3673621620346078
  0.6671854381412733  0.8432629623532061  0.3667183035673617
  0.6667460848306863  0.9682137670982833  0.3652136089447297
  0.6667158168358117  0.0930737303113634  0.3653529815984694
  0.6669658115821795  0.2181040928931504  0.3649246168345740
  0.6672451529144361  0.3429160430131205  0.3617670639313100
  0.6678945418789909  0.4677123531709804  0.3570158277066676
  0.6683298154911432  0.5925489815320178  0.3575260824664174
  0.5437056563538026  0.6541648505598833  0.3709685689629142
  0.5418899769353458  0.7813565909631546  0.3721299727432081
  0.5418759702327360  0.9057188409838411  0.3665286829313693
  0.5418858485324398  0.0306662738650527  0.3648197296045721
  0.5417858480200147  0.1556081723162921  0.3668520640192005
  0.5419441498303165  0.2804774217719449  0.3665497471877617
  0.5431792920879206  0.4054335484490508  0.3602682304999104
  0.5435418251727843  0.5301629291620695  0.3543831569955087
  0.4167953947124277  0.7186143357083060  0.3794533684992018
  0.4168482015305120  0.8435048941319579  0.3703350415037009
  0.4167026417365811  0.9683871798976230  0.3650805724588541
  0.4168225973639458  0.0932387051531112  0.3662598323649809
  0.4169448190272763  0.2182357920843712  0.3702380123316253
  0.4165170762488669  0.3434146482917980  0.3729208232893324
  0.4154584191200317  0.4681691620772307  0.3555634705554429
  0.4153470071734351  0.5929001946316653  0.3583589661335970
  0.2907992992979243  0.6548381408457072  0.3664974395911557
  0.2906090961438472  0.7818223841245984  0.3699456420930813
  0.2916689095147867  0.9058860557873319  0.3657813031362847
  0.2918655588735947  0.0308608223432502  0.3649326353232205
  0.2918340305964421  0.1559057921070988  0.3676336448901323
  0.2915755930196345  0.2808397342834746  0.3686589688551060
  0.2911654300919992  0.4053252820829983  0.3588501533196243
  0.2907136326144173  0.5304293037949336  0.3502720549838055
  0.1660298388305517  0.7185046020144394  0.3660732437528527
  0.1664742474007777  0.8436463780934457  0.3649171243484058
  0.1666545783740415  0.9684953620315632  0.3644868117212624
  0.1667695618549763  0.0933518562464314  0.3648980845027994
  0.1667149324118878  0.2182615676722904  0.3665078896920112
  0.1666545544238104  0.3431363414516005  0.3645677279004743
  0.1666570134931550  0.4680515194578049  0.3591475432872829
  0.1659913078652069  0.5928644092536350  0.3606601392116658
  0.0416552849505438  0.6557711841768042  0.3665912486599842
  0.0415724068324247  0.7809961014181954  0.3668019647486240
  0.0417459737459898  0.9059120696942460  0.3652922049364545
  0.0418764394226914  0.0308689824158622  0.3643916937957380
  0.0417649572613708  0.1557180607215276  0.3652800870309886
  0.0417812232622074  0.2806721396392942  0.3663235078434191
  0.0418387711369431  0.4056286049423431  0.3653413856348679
  0.0417078525712804  0.5305278760428888  0.3646851680567585
  0.8339960991998568  0.7182270412153887  0.3660912733771547
  0.8337143213004486  0.8434749377936988  0.3663673100367277
  0.8335312352409844  0.9683524122145882  0.3652728900893917
  0.8334636266172634  0.0931401287528994  0.3654817183296253
  0.8335854706377417  0.2180455281400453  0.3656691325826468
  0.8337454660362018  0.3430167757847636  0.3651009225043949
  0.8339912433074405  0.4679356239834223  0.3633101134841182
  0.8341802129187984  0.5929781037931225  0.3633172269482673
  0.7096327232774410  0.6553378454412558  0.3622825877575301
  0.7092976954014942  0.7808130068217713  0.3667623901568776
  0.7085649768325788  0.9055985460659290  0.3656608407904187
  0.7084399900005260  0.0307018400210527  0.3652417615973566
  0.7084970545513865  0.1556663555350078  0.3653201812557891
  0.7087387848795054  0.2805122310839668  0.3641275960607465
  0.7090688025045998  0.4053043431914806  0.3601683439984080
  0.7095466629866736  0.5301956920462587  0.3572859489274880
  0.5847013554612003  0.7181406167581510  0.3738795026388814
  0.5835533677022123  0.8432189285976839  0.3681213613913821
  0.5834624122878196  0.9681756795345660  0.3650090228735846
  0.5834287284509732  0.0930668421926766  0.3655712131217225
  0.5834602691798204  0.2181581122739195  0.3660300718843214
  0.5841117289509433  0.3429877731448418  0.3624666210103384
  0.5848330507275472  0.4676828472801384  0.3552787226959852
  0.5851663627555014  0.5919794047855914  0.3577379353352902
  0.4576825509651802  0.6549709445972521  0.3731782047961001
  0.4588785620661483  0.7816859518978093  0.3741607279507773
  0.4584614108327849  0.9057218971917730  0.3669896248175647
  0.4584230184034477  0.0307464105303160  0.3649145319095283
  0.4585371607444456  0.1557266155594088  0.3678127271369642
  0.4588122620278541  0.2804040201878490  0.3711663922848091
  0.4588244002849477  0.4060311289582240  0.3653638543520094
  0.4588944420170375  0.5304956742066342  0.3565305917274159
  0.3312201546830247  0.7183957543055132  0.3769536075941572
  0.3330433585081830  0.8435097056616340  0.3688264581449708
  0.3334617394344549  0.9684199248484253  0.3649766041209357
  0.3334085729663838  0.0932900258689456  0.3662765794195129
  0.3333777577236313  0.2182380231417009  0.3697340189659444
  0.3327011313461261  0.3433364022309421  0.3674511649812021
  0.3324741790732377  0.4678554138176746  0.3520878729125199
  0.3327369982130922  0.5926433810015480  0.3541966231273385
  0.2069854292208231  0.6556141867392464  0.3644112145081088
  0.2078956061578011  0.7813794536627207  0.3660258391294330
  0.2083928575623226  0.9059996419359536  0.3649301492240035
  0.2084182678785255  0.0309553058681649  0.3646821992283139
  0.2084682375612846  0.1558105683624868  0.3662446618897022
  0.2082171947849308  0.2806488759738988  0.3667015837187922
  0.2080801447828545  0.4054219121064990  0.3600780565917933
  0.2079220288758693  0.5305378639028843  0.3555725243700185
  0.0831143366171732  0.7183325479493844  0.3666715448347753
  0.0831810830168141  0.8435223568618537  0.3655530375918706
  0.0834093637981748  0.9684584404976233  0.3644729762147119
  0.0833462048044968  0.0932991070362850  0.3645388723982591
  0.0834205878732442  0.2181813049888072  0.3660023291247367
  0.0834730011690817  0.3430368718622164  0.3656452616657832
  0.0834712252703143  0.4680893214103981  0.3634579389555259
  0.0831760945504054  0.5930908164155727  0.3640765662267019
  0.9585366039151403  0.6557102954328125  0.3670016463704449
  0.9584842670006994  0.7809373905825632  0.3672370154796285
  0.9584707811938840  0.9059266227423626  0.3657559221133160
  0.9585155218627686  0.0308906463356835  0.3648155797131510
  0.9585164745843228  0.1556847197609754  0.3655710433867395
  0.9584417574392039  0.2805502461215973  0.3662684580637536
  0.9586555387348885  0.4055531920987914  0.3661123289642182
  0.9585924373032262  0.5305445701789366  0.3658637791743257
  0.4556000134797523  0.4579929626254028  0.5882907544942338
  0.4482771316141745  0.4047613553960875  0.4742968211070437
  0.4372864251001560  0.6719163773604185  0.4796392222088115
  0.4474495634625736  0.6653644966043633  0.6063702881070560
  0.5393600461379360  0.5629961686542194  0.5618979162107960
  0.2985540203906601  0.6697668209595709  0.6013201515142768
  0.5856895406447398  0.6663602564756350  0.4744459354432178
  0.5968026674038469  0.6745183386158509  0.6010188681406995
  0.2895726955144684  0.6739656000715321  0.4756601882165065
  0.3620613389216680  0.5566436287155382  0.5755173655889382
  0.4402403740814133  0.5353204650998287  0.4655860336145100

  0.00000000E+00  0.00000000E+00  0.00000000E+00
  0.00000000E+00  0.00000000E+00  0.00000000E+00
  0.00000000E+00  0.00000000E+00  0.00000000E+00
  0.00000000E+00  0.00000000E+00  0.00000000E+00
  0.00000000E+00  0.00000000E+00  0.00000000E+00
  0.00000000E+00  0.00000000E+00  0.00000000E+00
  0.00000000E+00  0.00000000E+00  0.00000000E+00
  0.00000000E+00  0.00000000E+00  0.00000000E+00
  0.00000000E+00  0.00000000E+00  0.00000000E+00
  0.00000000E+00  0.00000000E+00  0.00000000E+00
  0.00000000E+00  0.00000000E+00  0.00000000E+00
  0.00000000E+00  0.00000000E+00  0.00000000E+00
  0.00000000E+00  0.00000000E+00  0.00000000E+00
  0.00000000E+00  0.00000000E+00  0.00000000E+00
  0.00000000E+00  0.00000000E+00  0.00000000E+00
  0.00000000E+00  0.00000000E+00  0.00000000E+00
  0.00000000E+00  0.00000000E+00  0.00000000E+00
  0.00000000E+00  0.00000000E+00  0.00000000E+00
  0.00000000E+00  0.00000000E+00  0.00000000E+00
  0.00000000E+00  0.00000000E+00  0.00000000E+00
  0.00000000E+00  0.00000000E+00  0.00000000E+00
  0.00000000E+00  0.00000000E+00  0.00000000E+00
  0.00000000E+00  0.00000000E+00  0.00000000E+00
  0.00000000E+00  0.00000000E+00  0.00000000E+00
  0.00000000E+00  0.00000000E+00  0.00000000E+00
  0.00000000E+00  0.00000000E+00  0.00000000E+00
  0.00000000E+00  0.00000000E+00  0.00000000E+00
  0.00000000E+00  0.00000000E+00  0.00000000E+00
  0.00000000E+00  0.00000000E+00  0.00000000E+00
  0.00000000E+00  0.00000000E+00  0.00000000E+00
  0.00000000E+00  0.00000000E+00  0.00000000E+00
  0.00000000E+00  0.00000000E+00  0.00000000E+00
  0.00000000E+00  0.00000000E+00  0.00000000E+00
  0.00000000E+00  0.00000000E+00  0.00000000E+00
  0.00000000E+00  0.00000000E+00  0.00000000E+00
  0.00000000E+00  0.00000000E+00  0.00000000E+00
  0.00000000E+00  0.00000000E+00  0.00000000E+00
  0.00000000E+00  0.00000000E+00  0.00000000E+00
  0.00000000E+00  0.00000000E+00  0.00000000E+00
  0.00000000E+00  0.00000000E+00  0.00000000E+00
  0.00000000E+00  0.00000000E+00  0.00000000E+00
  0.00000000E+00  0.00000000E+00  0.00000000E+00
  0.00000000E+00  0.00000000E+00  0.00000000E+00
  0.00000000E+00  0.00000000E+00  0.00000000E+00
  0.00000000E+00  0.00000000E+00  0.00000000E+00
  0.00000000E+00  0.00000000E+00  0.00000000E+00
  0.00000000E+00  0.00000000E+00  0.00000000E+00
  0.00000000E+00  0.00000000E+00  0.00000000E+00
  0.00000000E+00  0.00000000E+00  0.00000000E+00
  0.00000000E+00  0.00000000E+00  0.00000000E+00
  0.00000000E+00  0.00000000E+00  0.00000000E+00
  0.00000000E+00  0.00000000E+00  0.00000000E+00
  0.00000000E+00  0.00000000E+00  0.00000000E+00
  0.00000000E+00  0.00000000E+00  0.00000000E+00
  0.00000000E+00  0.00000000E+00  0.00000000E+00
  0.00000000E+00  0.00000000E+00  0.00000000E+00
  0.00000000E+00  0.00000000E+00  0.00000000E+00
  0.00000000E+00  0.00000000E+00  0.00000000E+00
  0.00000000E+00  0.00000000E+00  0.00000000E+00
  0.00000000E+00  0.00000000E+00  0.00000000E+00
  0.00000000E+00  0.00000000E+00  0.00000000E+00
  0.00000000E+00  0.00000000E+00  0.00000000E+00
  0.00000000E+00  0.00000000E+00  0.00000000E+00
  0.00000000E+00  0.00000000E+00  0.00000000E+00
  0.00000000E+00  0.00000000E+00  0.00000000E+00
  0.00000000E+00  0.00000000E+00  0.00000000E+00
  0.00000000E+00  0.00000000E+00  0.00000000E+00
  0.00000000E+00  0.00000000E+00  0.00000000E+00
  0.00000000E+00  0.00000000E+00  0.00000000E+00
  0.00000000E+00  0.00000000E+00  0.00000000E+00
  0.00000000E+00  0.00000000E+00  0.00000000E+00
  0.00000000E+00  0.00000000E+00  0.00000000E+00
  0.00000000E+00  0.00000000E+00  0.00000000E+00
  0.00000000E+00  0.00000000E+00  0.00000000E+00
  0.00000000E+00  0.00000000E+00  0.00000000E+00
  0.00000000E+00  0.00000000E+00  0.00000000E+00
  0.00000000E+00  0.00000000E+00  0.00000000E+00
  0.00000000E+00  0.00000000E+00  0.00000000E+00
  0.00000000E+00  0.00000000E+00  0.00000000E+00
  0.00000000E+00  0.00000000E+00  0.00000000E+00
  0.00000000E+00  0.00000000E+00  0.00000000E+00
  0.00000000E+00  0.00000000E+00  0.00000000E+00
  0.00000000E+00  0.00000000E+00  0.00000000E+00
  0.00000000E+00  0.00000000E+00  0.00000000E+00
  0.00000000E+00  0.00000000E+00  0.00000000E+00
  0.00000000E+00  0.00000000E+00  0.00000000E+00
  0.00000000E+00  0.00000000E+00  0.00000000E+00
  0.00000000E+00  0.00000000E+00  0.00000000E+00
  0.00000000E+00  0.00000000E+00  0.00000000E+00
  0.00000000E+00  0.00000000E+00  0.00000000E+00
  0.00000000E+00  0.00000000E+00  0.00000000E+00
  0.00000000E+00  0.00000000E+00  0.00000000E+00
  0.00000000E+00  0.00000000E+00  0.00000000E+00
  0.00000000E+00  0.00000000E+00  0.00000000E+00
  0.00000000E+00  0.00000000E+00  0.00000000E+00
  0.00000000E+00  0.00000000E+00  0.00000000E+00
  0.00000000E+00  0.00000000E+00  0.00000000E+00
  0.00000000E+00  0.00000000E+00  0.00000000E+00
  0.00000000E+00  0.00000000E+00  0.00000000E+00
  0.00000000E+00  0.00000000E+00  0.00000000E+00
  0.00000000E+00  0.00000000E+00  0.00000000E+00
  0.00000000E+00  0.00000000E+00  0.00000000E+00
  0.00000000E+00  0.00000000E+00  0.00000000E+00
  0.00000000E+00  0.00000000E+00  0.00000000E+00
  0.00000000E+00  0.00000000E+00  0.00000000E+00
  0.00000000E+00  0.00000000E+00  0.00000000E+00
  0.00000000E+00  0.00000000E+00  0.00000000E+00
  0.00000000E+00  0.00000000E+00  0.00000000E+00
  0.00000000E+00  0.00000000E+00  0.00000000E+00
  0.00000000E+00  0.00000000E+00  0.00000000E+00
  0.00000000E+00  0.00000000E+00  0.00000000E+00
  0.00000000E+00  0.00000000E+00  0.00000000E+00
  0.00000000E+00  0.00000000E+00  0.00000000E+00
  0.00000000E+00  0.00000000E+00  0.00000000E+00
  0.00000000E+00  0.00000000E+00  0.00000000E+00
  0.00000000E+00  0.00000000E+00  0.00000000E+00
  0.00000000E+00  0.00000000E+00  0.00000000E+00
  0.00000000E+00  0.00000000E+00  0.00000000E+00
  0.00000000E+00  0.00000000E+00  0.00000000E+00
  0.00000000E+00  0.00000000E+00  0.00000000E+00
  0.00000000E+00  0.00000000E+00  0.00000000E+00
  0.00000000E+00  0.00000000E+00  0.00000000E+00
  0.00000000E+00  0.00000000E+00  0.00000000E+00
  0.00000000E+00  0.00000000E+00  0.00000000E+00
  0.00000000E+00  0.00000000E+00  0.00000000E+00
  0.00000000E+00  0.00000000E+00  0.00000000E+00
  0.00000000E+00  0.00000000E+00  0.00000000E+00
  0.00000000E+00  0.00000000E+00  0.00000000E+00
  0.00000000E+00  0.00000000E+00  0.00000000E+00
  0.00000000E+00  0.00000000E+00  0.00000000E+00
  0.00000000E+00  0.00000000E+00  0.00000000E+00
  0.00000000E+00  0.00000000E+00  0.00000000E+00
  0.00000000E+00  0.00000000E+00  0.00000000E+00
  0.00000000E+00  0.00000000E+00  0.00000000E+00
  0.00000000E+00  0.00000000E+00  0.00000000E+00
  0.00000000E+00  0.00000000E+00  0.00000000E+00
  0.00000000E+00  0.00000000E+00  0.00000000E+00
  0.00000000E+00  0.00000000E+00  0.00000000E+00
  0.00000000E+00  0.00000000E+00  0.00000000E+00
