 C Pt                                   
   1.0000000000000000     
    17.0979999999999990    0.0000000000000000    0.0000000000000000
     0.0000000000000000   19.7420000000000009    0.0000000000000000
     0.0000000000000000    0.0000000000000000   20.0000000000000000
   C    Pt
   128    11
Direct
  0.9176585323932301  0.7186519295206039  0.3859682907183026
  0.9176647395716059  0.8437368464753995  0.3872946850867958
  0.9174151842914429  0.9686370529439545  0.3871048574441020
  0.9173113343722658  0.0936231172262624  0.3870039351077945
  0.9174514704278049  0.2185162517705364  0.3872050737340887
  0.9175548480621453  0.3435045074580189  0.3867754093713685
  0.9175731145887974  0.4686039643018370  0.3848991871954690
  0.9176370062186328  0.5936787592764513  0.3839193621563277
  0.7929538113402145  0.6562983457794335  0.3777960542832826
  0.7929973579445080  0.7812255502187236  0.3849232506671507
  0.7925383811041237  0.9061374561249926  0.3875522490033531
  0.7923842224677288  0.0310740427817778  0.3872685353713688
  0.7923706102369905  0.1559943696903415  0.3867387304897888
  0.7926468692095152  0.2809706952863231  0.3850810700568930
  0.7930852358847510  0.4058572516594630  0.3802879788329648
  0.7932279285325942  0.5311376836747845  0.3754277632648508
  0.6689492113761938  0.7187601953536044  0.3826625447884229
  0.6676892571578340  0.8436171923935573  0.3878783194346582
  0.6673765808242188  0.9685691080207228  0.3877791368147785
  0.6673681523580320  0.0934833384800318  0.3867944594422035
  0.6674769530776967  0.2183839031475532  0.3848199096102555
  0.6680138502409295  0.3431932566298103  0.3790721611416285
  0.6694164100176240  0.4683558006948930  0.3731135475256924
  0.6680577639552174  0.5935927726179389  0.3703633852779331
  0.5445850469071402  0.6553189964893608  0.3913202573832769
  0.5425913895626537  0.7815909862569854  0.3909472183125576
  0.5423723630254766  0.9062027025824272  0.3881850515571630
  0.5423352170326698  0.0310083877074473  0.3868922427552324
  0.5423009137316904  0.1558250169931920  0.3864782811686461
  0.5426123175689382  0.2805126215022852  0.3838931804674593
  0.5433641463782696  0.4048302304821851  0.3795259709678761
  0.5430461965797478  0.5309158992164219  0.3797068531573713
  0.4170670761437247  0.7193079425897425  0.3908045067548194
  0.4173686468900129  0.8437903480074018  0.3880011696632097
  0.4173147572841665  0.9686246531370606  0.3867177119447330
  0.4173058881559362  0.0935446708366462  0.3867345551018833
  0.4173144617638449  0.2182703731423108  0.3883701908465382
  0.4171486100689943  0.3432624505954540  0.3908036198174784
  0.4168056622064954  0.4693281677271801  0.3797270018486611
  0.4168612278152296  0.5928684164620045  0.3892578434842197
  0.2918712865405568  0.6562295785256232  0.3862312504695518
  0.2923181850132480  0.7813271978230697  0.3864650272930827
  0.2923834929345123  0.9061992450679411  0.3864339775020755
  0.2923212701747572  0.0311557957343033  0.3863231725167199
  0.2923152894041959  0.1561912149718360  0.3871962340696577
  0.2921128746729188  0.2811157339238143  0.3877896011430376
  0.2920407602512185  0.4060956978209079  0.3844365110558000
  0.2916676762555726  0.5310439765078840  0.3832168839940345
  0.1672501415869452  0.7188049134944068  0.3866298585989447
  0.1673976406736873  0.8436725202389082  0.3865683292203989
  0.1674093784051975  0.9687024016064092  0.3862859052779149
  0.1673156075994062  0.0936753658541065  0.3864053156666070
  0.1672617822320985  0.2186259420358970  0.3867990498728893
  0.1671303291863495  0.3435150009354060  0.3865760070948264
  0.1669532702301079  0.4685498989712816  0.3852388473348691
  0.1670747414562093  0.5936367638883625  0.3860922467850689
  0.0424361541368456  0.6561552100502982  0.3873665040323429
  0.0425619899283402  0.7811951806493044  0.3874252121571486
  0.0424575548453796  0.9061868518568172  0.3869626796992960
  0.0423941528871194  0.0311566299107402  0.3865359126210883
  0.0422454243563238  0.1561135094791912  0.3868926136904191
  0.0423397124837671  0.2810631339201857  0.3874609001103394
  0.0423065471226784  0.4060725576364539  0.3874111039584985
  0.0423270530827477  0.5311102921011729  0.3870480895568619
  0.8345695251559034  0.7186903368152191  0.3831459704525076
  0.8344909657347361  0.8437459928290455  0.3869678905175081
  0.8341043258668474  0.9685475075754169  0.3873984821181979
  0.8340345433045647  0.0935354528125803  0.3870934669763800
  0.8341632639743037  0.2184382333761935  0.3866886288458397
  0.8344981317545266  0.3433871006112378  0.3844085678703567
  0.8346014623573768  0.4685514513808529  0.3804792053983141
  0.8347699156689929  0.5937362899995750  0.3786776153837921
  0.7099910301343741  0.6563658198914846  0.3749952267982714
  0.7098399088844329  0.7812197429109781  0.3849260811052400
  0.7091801918499122  0.9060333318997983  0.3879701258936371
  0.7090706888353777  0.0309451827970354  0.3872965364782431
  0.7091135286952988  0.1559367671044932  0.3863205951896521
  0.7094203147799614  0.2808675600402727  0.3831519601727030
  0.7101781041759951  0.4056676476231294  0.3766872272917055
  0.7102635274736603  0.5310757903444195  0.3703659159363392
  0.5855744086823547  0.7190282435762301  0.3913054082201149
  0.5841631489005806  0.8436566206636605  0.3891249996107408
  0.5841142971024558  0.9685602214528073  0.3874767417528497
  0.5841054026795284  0.0933851069604063  0.3867557153011300
  0.5841940067061596  0.2181645389416783  0.3849238788532433
  0.5848765641801696  0.3426431817617822  0.3792762144127042
  0.5855098533552610  0.4679979179639595  0.3779841050089385
  0.5856012717617609  0.5932072857812235  0.3767212310121705
  0.4589055674398528  0.6560033911974460  0.3951266941717648
  0.4592751385593780  0.7814623150214063  0.3900548964645237
  0.4590951872440627  0.9061618675783799  0.3876302800803280
  0.4590475148773043  0.0310182098843851  0.3866107664290677
  0.4590351360105754  0.1558599393540777  0.3871305595459733
  0.4594676786128423  0.2803602130859946  0.3882424237049223
  0.4592796502801370  0.4061799079665707  0.3845904321204762
  0.4589082129075812  0.5306359817641508  0.3798842056578456
  0.3340140678173788  0.7189439198314878  0.3873824681686170
  0.3340972079886907  0.8437144896012442  0.3869853681102192
  0.3340344408928447  0.9686141048031004  0.3863323810220772
  0.3340357870501498  0.0935905818370005  0.3867792416222992
  0.3339598722399861  0.2185421872229009  0.3881352370730909
  0.3332635602848852  0.3435125251856257  0.3879585844288338
  0.3336052930000737  0.4686710797883675  0.3815341368923084
  0.3329038057578487  0.5935610732435065  0.3856182391866310
  0.2088323780409260  0.6562779160792781  0.3860849718668877
  0.2090244922012650  0.7812211039070607  0.3863303093770412
  0.2090894496557038  0.9061227934539318  0.3862690437256125
  0.2090597860060181  0.0311073909893894  0.3863209174256331
  0.2089469757331902  0.1561493886160632  0.3867291402957816
  0.2087960646048836  0.2810137822199755  0.3868013160111585
  0.2088269727225835  0.4060508068648361  0.3853440518163511
  0.2084348428104191  0.5311090017163118  0.3847735641802646
  0.0841156362648601  0.7187240790690177  0.3873278734799532
  0.0841904723288966  0.8436278600108409  0.3870384191551480
  0.0841228579685925  0.9685974442881247  0.3865048940920364
  0.0839713003925297  0.0936060618652341  0.3865236827634712
  0.0839955956905869  0.2185950855270565  0.3869594807918922
  0.0838867524203633  0.3435429566416309  0.3873021475760678
  0.0838917908443748  0.4685602236119210  0.3868417298562337
  0.0839128112543345  0.5936556058812857  0.3871208518524402
  0.9593876210246375  0.6561832798078482  0.3860546639966944
  0.9593473646361602  0.7811894332294098  0.3873505511742444
  0.9592022939573887  0.9061554774574273  0.3873246641583824
  0.9590790767509184  0.0311390930776928  0.3867741808406454
  0.9589692809330511  0.1560247316347920  0.3871119572424143
  0.9591306541454697  0.2809979109820521  0.3875539727338683
  0.9591634231972156  0.4060304233743904  0.3868131443039232
  0.9591721043114636  0.5311330721093831  0.3855490189429223
  0.7153997731810404  0.5184936818593661  0.5364930377115759
  0.6143901070894837  0.4494022699141229  0.6070068197820777
  0.5816865802736901  0.4798320691364289  0.4884060257297223
  0.4587204052317254  0.6093390175566873  0.6239014045981555
  0.4816407389844561  0.3971589097103542  0.6175422762031929
  0.4460443719660672  0.5045173106131892  0.5535491367289942
  0.4637354281046123  0.3882011134398974  0.4934667146693597
  0.7190489882577916  0.6474490913554845  0.5491541881363025
  0.5840852823781655  0.6632805500435354  0.4961901217373187
  0.5968203353657814  0.5803697015649801  0.5919908180847743
  0.4384262318892010  0.6229573175758135  0.4992668001579983

  0.00000000E+00  0.00000000E+00  0.00000000E+00
  0.00000000E+00  0.00000000E+00  0.00000000E+00
  0.00000000E+00  0.00000000E+00  0.00000000E+00
  0.00000000E+00  0.00000000E+00  0.00000000E+00
  0.00000000E+00  0.00000000E+00  0.00000000E+00
  0.00000000E+00  0.00000000E+00  0.00000000E+00
  0.00000000E+00  0.00000000E+00  0.00000000E+00
  0.00000000E+00  0.00000000E+00  0.00000000E+00
  0.00000000E+00  0.00000000E+00  0.00000000E+00
  0.00000000E+00  0.00000000E+00  0.00000000E+00
  0.00000000E+00  0.00000000E+00  0.00000000E+00
  0.00000000E+00  0.00000000E+00  0.00000000E+00
  0.00000000E+00  0.00000000E+00  0.00000000E+00
  0.00000000E+00  0.00000000E+00  0.00000000E+00
  0.00000000E+00  0.00000000E+00  0.00000000E+00
  0.00000000E+00  0.00000000E+00  0.00000000E+00
  0.00000000E+00  0.00000000E+00  0.00000000E+00
  0.00000000E+00  0.00000000E+00  0.00000000E+00
  0.00000000E+00  0.00000000E+00  0.00000000E+00
  0.00000000E+00  0.00000000E+00  0.00000000E+00
  0.00000000E+00  0.00000000E+00  0.00000000E+00
  0.00000000E+00  0.00000000E+00  0.00000000E+00
  0.00000000E+00  0.00000000E+00  0.00000000E+00
  0.00000000E+00  0.00000000E+00  0.00000000E+00
  0.00000000E+00  0.00000000E+00  0.00000000E+00
  0.00000000E+00  0.00000000E+00  0.00000000E+00
  0.00000000E+00  0.00000000E+00  0.00000000E+00
  0.00000000E+00  0.00000000E+00  0.00000000E+00
  0.00000000E+00  0.00000000E+00  0.00000000E+00
  0.00000000E+00  0.00000000E+00  0.00000000E+00
  0.00000000E+00  0.00000000E+00  0.00000000E+00
  0.00000000E+00  0.00000000E+00  0.00000000E+00
  0.00000000E+00  0.00000000E+00  0.00000000E+00
  0.00000000E+00  0.00000000E+00  0.00000000E+00
  0.00000000E+00  0.00000000E+00  0.00000000E+00
  0.00000000E+00  0.00000000E+00  0.00000000E+00
  0.00000000E+00  0.00000000E+00  0.00000000E+00
  0.00000000E+00  0.00000000E+00  0.00000000E+00
  0.00000000E+00  0.00000000E+00  0.00000000E+00
  0.00000000E+00  0.00000000E+00  0.00000000E+00
  0.00000000E+00  0.00000000E+00  0.00000000E+00
  0.00000000E+00  0.00000000E+00  0.00000000E+00
  0.00000000E+00  0.00000000E+00  0.00000000E+00
  0.00000000E+00  0.00000000E+00  0.00000000E+00
  0.00000000E+00  0.00000000E+00  0.00000000E+00
  0.00000000E+00  0.00000000E+00  0.00000000E+00
  0.00000000E+00  0.00000000E+00  0.00000000E+00
  0.00000000E+00  0.00000000E+00  0.00000000E+00
  0.00000000E+00  0.00000000E+00  0.00000000E+00
  0.00000000E+00  0.00000000E+00  0.00000000E+00
  0.00000000E+00  0.00000000E+00  0.00000000E+00
  0.00000000E+00  0.00000000E+00  0.00000000E+00
  0.00000000E+00  0.00000000E+00  0.00000000E+00
  0.00000000E+00  0.00000000E+00  0.00000000E+00
  0.00000000E+00  0.00000000E+00  0.00000000E+00
  0.00000000E+00  0.00000000E+00  0.00000000E+00
  0.00000000E+00  0.00000000E+00  0.00000000E+00
  0.00000000E+00  0.00000000E+00  0.00000000E+00
  0.00000000E+00  0.00000000E+00  0.00000000E+00
  0.00000000E+00  0.00000000E+00  0.00000000E+00
  0.00000000E+00  0.00000000E+00  0.00000000E+00
  0.00000000E+00  0.00000000E+00  0.00000000E+00
  0.00000000E+00  0.00000000E+00  0.00000000E+00
  0.00000000E+00  0.00000000E+00  0.00000000E+00
  0.00000000E+00  0.00000000E+00  0.00000000E+00
  0.00000000E+00  0.00000000E+00  0.00000000E+00
  0.00000000E+00  0.00000000E+00  0.00000000E+00
  0.00000000E+00  0.00000000E+00  0.00000000E+00
  0.00000000E+00  0.00000000E+00  0.00000000E+00
  0.00000000E+00  0.00000000E+00  0.00000000E+00
  0.00000000E+00  0.00000000E+00  0.00000000E+00
  0.00000000E+00  0.00000000E+00  0.00000000E+00
  0.00000000E+00  0.00000000E+00  0.00000000E+00
  0.00000000E+00  0.00000000E+00  0.00000000E+00
  0.00000000E+00  0.00000000E+00  0.00000000E+00
  0.00000000E+00  0.00000000E+00  0.00000000E+00
  0.00000000E+00  0.00000000E+00  0.00000000E+00
  0.00000000E+00  0.00000000E+00  0.00000000E+00
  0.00000000E+00  0.00000000E+00  0.00000000E+00
  0.00000000E+00  0.00000000E+00  0.00000000E+00
  0.00000000E+00  0.00000000E+00  0.00000000E+00
  0.00000000E+00  0.00000000E+00  0.00000000E+00
  0.00000000E+00  0.00000000E+00  0.00000000E+00
  0.00000000E+00  0.00000000E+00  0.00000000E+00
  0.00000000E+00  0.00000000E+00  0.00000000E+00
  0.00000000E+00  0.00000000E+00  0.00000000E+00
  0.00000000E+00  0.00000000E+00  0.00000000E+00
  0.00000000E+00  0.00000000E+00  0.00000000E+00
  0.00000000E+00  0.00000000E+00  0.00000000E+00
  0.00000000E+00  0.00000000E+00  0.00000000E+00
  0.00000000E+00  0.00000000E+00  0.00000000E+00
  0.00000000E+00  0.00000000E+00  0.00000000E+00
  0.00000000E+00  0.00000000E+00  0.00000000E+00
  0.00000000E+00  0.00000000E+00  0.00000000E+00
  0.00000000E+00  0.00000000E+00  0.00000000E+00
  0.00000000E+00  0.00000000E+00  0.00000000E+00
  0.00000000E+00  0.00000000E+00  0.00000000E+00
  0.00000000E+00  0.00000000E+00  0.00000000E+00
  0.00000000E+00  0.00000000E+00  0.00000000E+00
  0.00000000E+00  0.00000000E+00  0.00000000E+00
  0.00000000E+00  0.00000000E+00  0.00000000E+00
  0.00000000E+00  0.00000000E+00  0.00000000E+00
  0.00000000E+00  0.00000000E+00  0.00000000E+00
  0.00000000E+00  0.00000000E+00  0.00000000E+00
  0.00000000E+00  0.00000000E+00  0.00000000E+00
  0.00000000E+00  0.00000000E+00  0.00000000E+00
  0.00000000E+00  0.00000000E+00  0.00000000E+00
  0.00000000E+00  0.00000000E+00  0.00000000E+00
  0.00000000E+00  0.00000000E+00  0.00000000E+00
  0.00000000E+00  0.00000000E+00  0.00000000E+00
  0.00000000E+00  0.00000000E+00  0.00000000E+00
  0.00000000E+00  0.00000000E+00  0.00000000E+00
  0.00000000E+00  0.00000000E+00  0.00000000E+00
  0.00000000E+00  0.00000000E+00  0.00000000E+00
  0.00000000E+00  0.00000000E+00  0.00000000E+00
  0.00000000E+00  0.00000000E+00  0.00000000E+00
  0.00000000E+00  0.00000000E+00  0.00000000E+00
  0.00000000E+00  0.00000000E+00  0.00000000E+00
  0.00000000E+00  0.00000000E+00  0.00000000E+00
  0.00000000E+00  0.00000000E+00  0.00000000E+00
  0.00000000E+00  0.00000000E+00  0.00000000E+00
  0.00000000E+00  0.00000000E+00  0.00000000E+00
  0.00000000E+00  0.00000000E+00  0.00000000E+00
  0.00000000E+00  0.00000000E+00  0.00000000E+00
  0.00000000E+00  0.00000000E+00  0.00000000E+00
  0.00000000E+00  0.00000000E+00  0.00000000E+00
  0.00000000E+00  0.00000000E+00  0.00000000E+00
  0.00000000E+00  0.00000000E+00  0.00000000E+00
  0.00000000E+00  0.00000000E+00  0.00000000E+00
  0.00000000E+00  0.00000000E+00  0.00000000E+00
  0.00000000E+00  0.00000000E+00  0.00000000E+00
  0.00000000E+00  0.00000000E+00  0.00000000E+00
  0.00000000E+00  0.00000000E+00  0.00000000E+00
  0.00000000E+00  0.00000000E+00  0.00000000E+00
  0.00000000E+00  0.00000000E+00  0.00000000E+00
  0.00000000E+00  0.00000000E+00  0.00000000E+00
  0.00000000E+00  0.00000000E+00  0.00000000E+00
  0.00000000E+00  0.00000000E+00  0.00000000E+00
  0.00000000E+00  0.00000000E+00  0.00000000E+00
