 C Pt                                   
   1.0000000000000000     
    17.0979999999999990    0.0000000000000000    0.0000000000000000
     0.0000000000000000   19.7420000000000009    0.0000000000000000
     0.0000000000000000    0.0000000000000000   20.0000000000000000
   C    Pt
   128     9
Direct
  0.9178050758156645  0.4689826981815925  0.3727410250603801
  0.9177605719150485  0.5941581499275396  0.3719071004629842
  0.9177475992759153  0.7191096257125044  0.3728873965637146
  0.9175569086922074  0.8440868508289316  0.3737446610701539
  0.9174076462724575  0.9689932936973034  0.3733028017573228
  0.9174418089933076  0.0939700428007448  0.3724177467518143
  0.9174715491279759  0.2190139788702045  0.3725752145295095
  0.9175788770445326  0.3439682115878321  0.3733771603779126
  0.7929115302039911  0.4064947196724847  0.3727182674921792
  0.7933136406785868  0.5315655284825499  0.3678408528656004
  0.7931514733070801  0.6566958808251279  0.3682162396861800
  0.7926789393329042  0.7816357762281304  0.3716547448891097
  0.7924342763491643  0.9064741049041982  0.3734986728711768
  0.7924160336120624  0.0315411269832179  0.3729531722425258
  0.7923717660821455  0.1565230076857174  0.3728466025281614
  0.7926251232157737  0.2814267270133763  0.3736355024284749
  0.6692307811616662  0.4690360322560079  0.3707921043775795
  0.6687475142707033  0.5943214424360304  0.3628138578000448
  0.6680441298563583  0.7192235989346087  0.3666259023398930
  0.6675433593967602  0.8440452043655823  0.3717873072319161
  0.6673406796956221  0.9689933735315469  0.3732850331099439
  0.6674472893293721  0.0940156248906855  0.3729721142452552
  0.6675546244730958  0.2190052591111950  0.3742266126897054
  0.6675567513935723  0.3438684973022938  0.3763245029853579
  0.5425197472718789  0.4060615722448853  0.3827098702210713
  0.5428334295194871  0.5316715822925903  0.3674433313644548
  0.5437213896023740  0.6570224416282651  0.3657151089699316
  0.5425519907969785  0.7816900239157574  0.3699068885756953
  0.5423649861932901  0.9065645296146770  0.3729559730118400
  0.5423401582576176  0.0315691452598185  0.3730681627606458
  0.5423167618458815  0.1564305118119956  0.3731814257477308
  0.5426736761416553  0.2812124121802499  0.3755563436666944
  0.4166360601235131  0.4693752427713267  0.3658766911671689
  0.4169259589482046  0.5933409759594778  0.3693442761831738
  0.4171225972755189  0.7197338334028929  0.3712987505715462
  0.4174370393824129  0.8441722418015888  0.3724844925098399
  0.4173513891051555  0.9690760772045169  0.3733748457864434
  0.4173633959469160  0.0939979947449394  0.3730024450588657
  0.4173129131871902  0.2188298082537677  0.3732521062126672
  0.4165794252406926  0.3428270618348469  0.3735533271543273
  0.2923730800776477  0.4065727620490123  0.3722266842794161
  0.2918715553747744  0.5315971383262716  0.3683539908647181
  0.2922789291531833  0.6565176541136197  0.3703907274062851
  0.2924416280159667  0.7816188140031933  0.3723706807416524
  0.2923818474826004  0.9065509314322284  0.3734936758123082
  0.2922957388704532  0.0315417734198134  0.3730522929227348
  0.2922022896229493  0.1564482371371538  0.3731326558709722
  0.2922270529347536  0.2812057570288840  0.3733261567249878
  0.1672981684315151  0.4690463504062641  0.3734566915618281
  0.1672777053151131  0.5941009640262017  0.3727004701716675
  0.1674476629369255  0.7191171996179226  0.3733373965939612
  0.1674984271819121  0.8440666204303856  0.3736176672475264
  0.1673475974238580  0.9689933935857644  0.3729882252260261
  0.1673096983193432  0.0939738145616403  0.3726018601430550
  0.1673717126221314  0.2189762053979880  0.3736719003940783
  0.1674266292543841  0.3439268693717127  0.3745853683946237
  0.0425331356705015  0.4065322454980096  0.3744596519134405
  0.0426209295365502  0.5315521197521301  0.3740405566990803
  0.0425824522618487  0.6566335612082896  0.3741685778494990
  0.0425236614899118  0.7815837029669567  0.3741457980861285
  0.0424399269003378  0.9064521777714695  0.3734899210816411
  0.0423094043568245  0.0315024842341773  0.3724870479264912
  0.0422976462624084  0.1565088619117324  0.3726255087436790
  0.0425132806991826  0.2814843039083166  0.3737738772516853
  0.8345898542549354  0.4689325794055600  0.3712375232423883
  0.8347441272132136  0.5941810805520691  0.3689574539371362
  0.8344928886029269  0.7191411575406467  0.3710311900418767
  0.8342565892676012  0.8440619366506915  0.3733092389862360
  0.8341362393929352  0.9689258226383974  0.3734190527161572
  0.8339818485378986  0.0939605242652743  0.3725935999364863
  0.8340914878563738  0.2190080539342435  0.3728660211093237
  0.8344020477889537  0.3439492252023708  0.3734720730203968
  0.7098171392733473  0.4065179958287440  0.3737275565714783
  0.7105139610502850  0.5315073302161178  0.3653156200854989
  0.7099594775469994  0.6567450563307872  0.3651324843022399
  0.7094890630945593  0.7815840703332922  0.3700870033127348
  0.7090819769578448  0.9064386851198938  0.3731687463552175
  0.7090112437708004  0.0315455624226972  0.3730158414587460
  0.7091399226436385  0.1564859949140321  0.3732864821302485
  0.7092519167423460  0.2814007911073023  0.3747591535832920
  0.5855844878554102  0.4696566883749650  0.3761962386453640
  0.5855071316946160  0.5947126243697626  0.3631431634108132
  0.5847238256511518  0.7193174806238128  0.3665067767415518
  0.5841179382335780  0.8440627314186838  0.3717021687908814
  0.5840520254557269  0.9690488049246129  0.3732224641266901
  0.5840055194289712  0.0940290806114245  0.3729835683007446
  0.5841710951715551  0.2189364098687663  0.3741200327150743
  0.5847791005395848  0.3431857410839385  0.3786440711906745
  0.4580297236039615  0.4064166016729678  0.3766590223987701
  0.4584295765937362  0.5306276373496523  0.3622340327930667
  0.4596657974711451  0.6568040538527411  0.3727450613679189
  0.4591277295678468  0.7817313933875024  0.3711504651491425
  0.4590626113041090  0.9066218442219988  0.3730220335501926
  0.4590427556876354  0.0316273115365997  0.3731552174688910
  0.4590475226660020  0.1563780842397400  0.3731020535838502
  0.4588559070234354  0.2810784913696536  0.3740066180879460
  0.3335372645446235  0.4691011090581992  0.3681072675648267
  0.3329032254598390  0.5939771469268750  0.3684552690095163
  0.3341616173518562  0.7191961371002993  0.3710875905122551
  0.3340921970760194  0.8440951829854832  0.3730304160521817
  0.3340393865751651  0.9690524051264618  0.3733985305215846
  0.3339564990837984  0.0939431617170588  0.3729894341125215
  0.3339468635415603  0.2188450936547057  0.3732565521361464
  0.3338549783070413  0.3435251711522372  0.3726201683326797
  0.2091108644734414  0.4065046724403346  0.3738238208337947
  0.2087553432960267  0.5315035706278437  0.3714558192044106
  0.2090393628847256  0.6566000855947421  0.3720604195996797
  0.2091106729961560  0.7815561484486152  0.3731488322490291
  0.2090569985567987  0.9065098297378245  0.3734189741443386
  0.2089516139027814  0.0315656118403015  0.3728004552470102
  0.2090127898132279  0.1564545118939982  0.3730842204820639
  0.2089140024127616  0.2813790291239121  0.3739900344877744
  0.0841630024798001  0.4690127066581529  0.3743950957147963
  0.0841373437386897  0.5940698012680754  0.3740201139401656
  0.0842331335569130  0.7190977821322463  0.3741643656879058
  0.0841257827693247  0.8440930627456148  0.3738799363672341
  0.0840712127380419  0.9690247968285828  0.3728652676870672
  0.0839696690051943  0.0940138330710572  0.3723966260372815
  0.0840466891382365  0.2190047902218123  0.3734513286539055
  0.0842633675892226  0.3439215597778322  0.3745647207936504
  0.9593619315045955  0.4064441089820721  0.3736828131446513
  0.9594116371366797  0.5315391846569898  0.3729608511297048
  0.9593240074459645  0.6566656746518890  0.3732232347911127
  0.9592992481219706  0.7816126862257881  0.3737957876962931
  0.9591830875763377  0.9064926609798867  0.3736554940031540
  0.9590563515277117  0.0315191830335120  0.3726823885271905
  0.9590908942746900  0.1565447773269187  0.3723615799838896
  0.9591613850768885  0.2814857207546770  0.3731601884364577
  0.5819256830960127  0.5271231422032465  0.6035193051404526
  0.5721168562019517  0.5241110780959227  0.4772891713926191
  0.4533256831493829  0.6102323187590524  0.4765164741494433
  0.3459461669755472  0.4095541661237425  0.5344307601537227
  0.4768873340281883  0.6198540724668414  0.6008613708666203
  0.3439953825973713  0.6573044065953855  0.5493592475040165
  0.4711788448190188  0.4406841316712898  0.6054426554843265
  0.3804082675840338  0.5305228810351516  0.5622072117736169
  0.4829276533599789  0.4184625000890622  0.4825219161132984

  0.00000000E+00  0.00000000E+00  0.00000000E+00
  0.00000000E+00  0.00000000E+00  0.00000000E+00
  0.00000000E+00  0.00000000E+00  0.00000000E+00
  0.00000000E+00  0.00000000E+00  0.00000000E+00
  0.00000000E+00  0.00000000E+00  0.00000000E+00
  0.00000000E+00  0.00000000E+00  0.00000000E+00
  0.00000000E+00  0.00000000E+00  0.00000000E+00
  0.00000000E+00  0.00000000E+00  0.00000000E+00
  0.00000000E+00  0.00000000E+00  0.00000000E+00
  0.00000000E+00  0.00000000E+00  0.00000000E+00
  0.00000000E+00  0.00000000E+00  0.00000000E+00
  0.00000000E+00  0.00000000E+00  0.00000000E+00
  0.00000000E+00  0.00000000E+00  0.00000000E+00
  0.00000000E+00  0.00000000E+00  0.00000000E+00
  0.00000000E+00  0.00000000E+00  0.00000000E+00
  0.00000000E+00  0.00000000E+00  0.00000000E+00
  0.00000000E+00  0.00000000E+00  0.00000000E+00
  0.00000000E+00  0.00000000E+00  0.00000000E+00
  0.00000000E+00  0.00000000E+00  0.00000000E+00
  0.00000000E+00  0.00000000E+00  0.00000000E+00
  0.00000000E+00  0.00000000E+00  0.00000000E+00
  0.00000000E+00  0.00000000E+00  0.00000000E+00
  0.00000000E+00  0.00000000E+00  0.00000000E+00
  0.00000000E+00  0.00000000E+00  0.00000000E+00
  0.00000000E+00  0.00000000E+00  0.00000000E+00
  0.00000000E+00  0.00000000E+00  0.00000000E+00
  0.00000000E+00  0.00000000E+00  0.00000000E+00
  0.00000000E+00  0.00000000E+00  0.00000000E+00
  0.00000000E+00  0.00000000E+00  0.00000000E+00
  0.00000000E+00  0.00000000E+00  0.00000000E+00
  0.00000000E+00  0.00000000E+00  0.00000000E+00
  0.00000000E+00  0.00000000E+00  0.00000000E+00
  0.00000000E+00  0.00000000E+00  0.00000000E+00
  0.00000000E+00  0.00000000E+00  0.00000000E+00
  0.00000000E+00  0.00000000E+00  0.00000000E+00
  0.00000000E+00  0.00000000E+00  0.00000000E+00
  0.00000000E+00  0.00000000E+00  0.00000000E+00
  0.00000000E+00  0.00000000E+00  0.00000000E+00
  0.00000000E+00  0.00000000E+00  0.00000000E+00
  0.00000000E+00  0.00000000E+00  0.00000000E+00
  0.00000000E+00  0.00000000E+00  0.00000000E+00
  0.00000000E+00  0.00000000E+00  0.00000000E+00
  0.00000000E+00  0.00000000E+00  0.00000000E+00
  0.00000000E+00  0.00000000E+00  0.00000000E+00
  0.00000000E+00  0.00000000E+00  0.00000000E+00
  0.00000000E+00  0.00000000E+00  0.00000000E+00
  0.00000000E+00  0.00000000E+00  0.00000000E+00
  0.00000000E+00  0.00000000E+00  0.00000000E+00
  0.00000000E+00  0.00000000E+00  0.00000000E+00
  0.00000000E+00  0.00000000E+00  0.00000000E+00
  0.00000000E+00  0.00000000E+00  0.00000000E+00
  0.00000000E+00  0.00000000E+00  0.00000000E+00
  0.00000000E+00  0.00000000E+00  0.00000000E+00
  0.00000000E+00  0.00000000E+00  0.00000000E+00
  0.00000000E+00  0.00000000E+00  0.00000000E+00
  0.00000000E+00  0.00000000E+00  0.00000000E+00
  0.00000000E+00  0.00000000E+00  0.00000000E+00
  0.00000000E+00  0.00000000E+00  0.00000000E+00
  0.00000000E+00  0.00000000E+00  0.00000000E+00
  0.00000000E+00  0.00000000E+00  0.00000000E+00
  0.00000000E+00  0.00000000E+00  0.00000000E+00
  0.00000000E+00  0.00000000E+00  0.00000000E+00
  0.00000000E+00  0.00000000E+00  0.00000000E+00
  0.00000000E+00  0.00000000E+00  0.00000000E+00
  0.00000000E+00  0.00000000E+00  0.00000000E+00
  0.00000000E+00  0.00000000E+00  0.00000000E+00
  0.00000000E+00  0.00000000E+00  0.00000000E+00
  0.00000000E+00  0.00000000E+00  0.00000000E+00
  0.00000000E+00  0.00000000E+00  0.00000000E+00
  0.00000000E+00  0.00000000E+00  0.00000000E+00
  0.00000000E+00  0.00000000E+00  0.00000000E+00
  0.00000000E+00  0.00000000E+00  0.00000000E+00
  0.00000000E+00  0.00000000E+00  0.00000000E+00
  0.00000000E+00  0.00000000E+00  0.00000000E+00
  0.00000000E+00  0.00000000E+00  0.00000000E+00
  0.00000000E+00  0.00000000E+00  0.00000000E+00
  0.00000000E+00  0.00000000E+00  0.00000000E+00
  0.00000000E+00  0.00000000E+00  0.00000000E+00
  0.00000000E+00  0.00000000E+00  0.00000000E+00
  0.00000000E+00  0.00000000E+00  0.00000000E+00
  0.00000000E+00  0.00000000E+00  0.00000000E+00
  0.00000000E+00  0.00000000E+00  0.00000000E+00
  0.00000000E+00  0.00000000E+00  0.00000000E+00
  0.00000000E+00  0.00000000E+00  0.00000000E+00
  0.00000000E+00  0.00000000E+00  0.00000000E+00
  0.00000000E+00  0.00000000E+00  0.00000000E+00
  0.00000000E+00  0.00000000E+00  0.00000000E+00
  0.00000000E+00  0.00000000E+00  0.00000000E+00
  0.00000000E+00  0.00000000E+00  0.00000000E+00
  0.00000000E+00  0.00000000E+00  0.00000000E+00
  0.00000000E+00  0.00000000E+00  0.00000000E+00
  0.00000000E+00  0.00000000E+00  0.00000000E+00
  0.00000000E+00  0.00000000E+00  0.00000000E+00
  0.00000000E+00  0.00000000E+00  0.00000000E+00
  0.00000000E+00  0.00000000E+00  0.00000000E+00
  0.00000000E+00  0.00000000E+00  0.00000000E+00
  0.00000000E+00  0.00000000E+00  0.00000000E+00
  0.00000000E+00  0.00000000E+00  0.00000000E+00
  0.00000000E+00  0.00000000E+00  0.00000000E+00
  0.00000000E+00  0.00000000E+00  0.00000000E+00
  0.00000000E+00  0.00000000E+00  0.00000000E+00
  0.00000000E+00  0.00000000E+00  0.00000000E+00
  0.00000000E+00  0.00000000E+00  0.00000000E+00
  0.00000000E+00  0.00000000E+00  0.00000000E+00
  0.00000000E+00  0.00000000E+00  0.00000000E+00
  0.00000000E+00  0.00000000E+00  0.00000000E+00
  0.00000000E+00  0.00000000E+00  0.00000000E+00
  0.00000000E+00  0.00000000E+00  0.00000000E+00
  0.00000000E+00  0.00000000E+00  0.00000000E+00
  0.00000000E+00  0.00000000E+00  0.00000000E+00
  0.00000000E+00  0.00000000E+00  0.00000000E+00
  0.00000000E+00  0.00000000E+00  0.00000000E+00
  0.00000000E+00  0.00000000E+00  0.00000000E+00
  0.00000000E+00  0.00000000E+00  0.00000000E+00
  0.00000000E+00  0.00000000E+00  0.00000000E+00
  0.00000000E+00  0.00000000E+00  0.00000000E+00
  0.00000000E+00  0.00000000E+00  0.00000000E+00
  0.00000000E+00  0.00000000E+00  0.00000000E+00
  0.00000000E+00  0.00000000E+00  0.00000000E+00
  0.00000000E+00  0.00000000E+00  0.00000000E+00
  0.00000000E+00  0.00000000E+00  0.00000000E+00
  0.00000000E+00  0.00000000E+00  0.00000000E+00
  0.00000000E+00  0.00000000E+00  0.00000000E+00
  0.00000000E+00  0.00000000E+00  0.00000000E+00
  0.00000000E+00  0.00000000E+00  0.00000000E+00
  0.00000000E+00  0.00000000E+00  0.00000000E+00
  0.00000000E+00  0.00000000E+00  0.00000000E+00
  0.00000000E+00  0.00000000E+00  0.00000000E+00
  0.00000000E+00  0.00000000E+00  0.00000000E+00
  0.00000000E+00  0.00000000E+00  0.00000000E+00
  0.00000000E+00  0.00000000E+00  0.00000000E+00
  0.00000000E+00  0.00000000E+00  0.00000000E+00
  0.00000000E+00  0.00000000E+00  0.00000000E+00
  0.00000000E+00  0.00000000E+00  0.00000000E+00
  0.00000000E+00  0.00000000E+00  0.00000000E+00
  0.00000000E+00  0.00000000E+00  0.00000000E+00
  0.00000000E+00  0.00000000E+00  0.00000000E+00
