 C Pt                                   
   1.0000000000000000     
    17.0979999999999990    0.0000000000000000    0.0000000000000000
     0.0000000000000000   19.7420000000000009    0.0000000000000000
     0.0000000000000000    0.0000000000000000   20.0000000000000000
   C    Pt
   128     9
Direct
  0.9172024924487681  0.4684725986622305  0.3878935904490902
  0.9170465316455796  0.5937809756966645  0.3881831249119364
  0.9169585885451468  0.7187856386863311  0.3888070373860869
  0.9169183261849193  0.8436494290898136  0.3885674996897495
  0.9166715416362348  0.9686770257417028  0.3872583528957312
  0.9168073118440367  0.0937009606981307  0.3868855273860710
  0.9170565075021702  0.2186935626826857  0.3876324469247626
  0.9171795331140445  0.3437746940889625  0.3880075554652607
  0.7922922900490128  0.4060881104017657  0.3846615160575798
  0.7922970518570208  0.5310898108073546  0.3837657143435192
  0.7919247079645855  0.6561674189938446  0.3857529538612820
  0.7919460395704347  0.7812319266463111  0.3878063980237031
  0.7917237305458645  0.9064021435065901  0.3877689452963266
  0.7917386646005361  0.0312034607943435  0.3876831642140905
  0.7919165798101478  0.1561113775005931  0.3879210933153303
  0.7921464865233240  0.2813093393873746  0.3870948364076887
  0.6675569331050114  0.4683392875703285  0.3759645921077664
  0.6676172167107335  0.5937147683180333  0.3764219098017698
  0.6672634513480847  0.7188379800194715  0.3821433322165423
  0.6668390392350881  0.8438460305425236  0.3863192487558579
  0.6667059153652727  0.9687901983788324  0.3881920335857346
  0.6668171017386487  0.0936547030594298  0.3880746293600127
  0.6670492984730020  0.2184974205390598  0.3860820881874147
  0.6674173896957466  0.3434885023365404  0.3811315518302412
  0.5425031339820651  0.4053894164139790  0.3742720673925358
  0.5437181909874430  0.5310273652900463  0.3720762253080002
  0.5431139369351726  0.6563433553225695  0.3782942602303300
  0.5422015920100257  0.7815389158144984  0.3813058960277930
  0.5417288139357167  0.9063694686091959  0.3866863748753158
  0.5416968458983491  0.0312364337342995  0.3883876250598382
  0.5419758118919951  0.1559782029942123  0.3870029081874126
  0.5421707885548340  0.2808660211379592  0.3829011975095966
  0.4191234726848479  0.4676376664400706  0.3876698448120389
  0.4161004603039138  0.5942883025193140  0.3795384620777855
  0.4164678187973574  0.7198328901188759  0.3816314128610665
  0.4168750957132463  0.8440419170835786  0.3838535611082183
  0.4167712143557639  0.9688237320299115  0.3877836304038690
  0.4167745774306069  0.0935871428907717  0.3877059839915242
  0.4169753182645343  0.2183317818072552  0.3865708895269475
  0.4173858132473951  0.3432473324233815  0.3841775268819550
  0.2918744864212579  0.4051478581232306  0.3931996803527238
  0.2922931806092128  0.5320273093864171  0.3960757636416560
  0.2918107092656546  0.6567404474804261  0.3824678129412371
  0.2917836330897629  0.7815082516509002  0.3830568277479369
  0.2917439512650105  0.9063378255609146  0.3867682541987893
  0.2916828317577455  0.0312220264181479  0.3877571297803841
  0.2919416064215185  0.1559718390516596  0.3872591060543739
  0.2921004151218120  0.2808096327317279  0.3880649397863065
  0.1670306276953016  0.4686307930153742  0.3915184033614667
  0.1668262493532265  0.5937584303175276  0.3880222659384163
  0.1667465779966441  0.7186757827765753  0.3848727160188679
  0.1666416651159814  0.8437465715227837  0.3861816386817702
  0.1667533025099076  0.9687390435072372  0.3877798410974990
  0.1668214712548287  0.0935911189115807  0.3869020859149769
  0.1670327337993943  0.2184823018812850  0.3868780395513770
  0.1671682952273524  0.3435493062431099  0.3888983744524994
  0.0421968559878420  0.4060539780136085  0.3890063940618451
  0.0421491931985621  0.5310928546710798  0.3892893127510074
  0.0417932490914152  0.6563107486682632  0.3874972394897742
  0.0417738199742069  0.7810985249125412  0.3873150258307300
  0.0416949296112322  0.9061777923052888  0.3877105946226995
  0.0417500425686379  0.0311557587421512  0.3871463562506035
  0.0418462789575944  0.1560360843439969  0.3861650338540492
  0.0421603215300331  0.2812223146451858  0.3869568130505915
  0.8339337201762156  0.4685460137637304  0.3855962113442308
  0.8337360896344784  0.5936979788314058  0.3860796404058157
  0.8336490441336154  0.7186888606862215  0.3878197483586223
  0.8335189442034052  0.8438583759289332  0.3884038457313521
  0.8332482497483260  0.9687873557121603  0.3875026475998863
  0.8334743588979263  0.0936191871072871  0.3875282576759318
  0.8336407927688743  0.2187434507634149  0.3880088164067500
  0.8338385240341066  0.3437302605497738  0.3869695032056705
  0.7092177398125059  0.4058609568409141  0.3803649384614237
  0.7091562047367607  0.5310960033968587  0.3785124096957278
  0.7089361412472684  0.6562157245446877  0.3817932778297439
  0.7085990757269566  0.7812959647300942  0.3856272164989015
  0.7083714706044425  0.9063696738428332  0.3876452096107596
  0.7084154955316575  0.0312404717361073  0.3882970671322237
  0.7085087426025442  0.1560909899889497  0.3875502210804931
  0.7087936211955713  0.2810657624284900  0.3852010205346766
  0.5843938328083864  0.4680285964943631  0.3718498331995678
  0.5848592437405047  0.5936019287478739  0.3723852466845011
  0.5843219071221591  0.7192828287901561  0.3797166543209545
  0.5834906744109801  0.8439418064398676  0.3847545984125499
  0.5832671951196590  0.9687780973401928  0.3881496169829231
  0.5835403605690302  0.0935916064805848  0.3880341280494878
  0.5837595997291438  0.2184633069661002  0.3854714328246006
  0.5839275296263555  0.3433260028381744  0.3785472802748598
  0.4595289636557127  0.4050338130869783  0.3799855474258551
  0.4596924122666192  0.5310972996783287  0.3814198436778699
  0.4587180538554669  0.6568190220609584  0.3809906618833520
  0.4586382511492998  0.7819112313514907  0.3814456475388351
  0.4584230956968182  0.9064402561570520  0.3861666057392282
  0.4584209522847231  0.0312196459967585  0.3882781650157081
  0.4585683415193696  0.1559638286519485  0.3870182469994670
  0.4587554472659404  0.2808254034871558  0.3842634551015509
  0.3346661804295109  0.4680784118174034  0.3985399338069947
  0.3338368520327847  0.5946631905165569  0.3843102590265396
  0.3333138985927171  0.7191884241848283  0.3813916855966142
  0.3334157145481942  0.8440062854391793  0.3846725159320637
  0.3333392992264329  0.9688035596081971  0.3876012118226915
  0.3335075481029804  0.0935844639564644  0.3876431660448241
  0.3337348724192427  0.2182708221265045  0.3871339625007461
  0.3337261126797756  0.3432578617075049  0.3887870356137435
  0.2089420300289327  0.4058167864121153  0.3914770036492337
  0.2079853682774564  0.5313016925689167  0.3920298504780121
  0.2086636387268243  0.6564316709564412  0.3850988487944708
  0.2084066164403927  0.7813185279153522  0.3843662228761713
  0.2083885444384638  0.9063448465003592  0.3870172297260727
  0.2083847328740945  0.0311529931020533  0.3876142817783310
  0.2085987042770716  0.1559779734570476  0.3868638830357528
  0.2087377727036484  0.2810109002380455  0.3881561116327062
  0.0837906113962042  0.4684977933107672  0.3899085958268052
  0.0835601102405710  0.5937763358195903  0.3880224668749794
  0.0833835789092059  0.7187624756473083  0.3862938295191279
  0.0832742741008645  0.8437084128913614  0.3870715142052200
  0.0834489329847005  0.9687057141089670  0.3877504173633874
  0.0835427357017509  0.0936095646881310  0.3865817876802173
  0.0836801977957208  0.2185160692667064  0.3862719428414029
  0.0838124812949379  0.3436576005913914  0.3880268662417213
  0.9589734405377478  0.4060553528615636  0.3884474778104718
  0.9587262407648495  0.5310900129840163  0.3886521224462895
  0.9586377238121686  0.6564034370245758  0.3886566038560903
  0.9585242737954638  0.7811790821138235  0.3887765160166577
  0.9584765992323311  0.9061665147512147  0.3878253561705620
  0.9584610687259744  0.0311759385448112  0.3868181178543786
  0.9585574879842617  0.1561320803876021  0.3867970728554763
  0.9587283729465454  0.2812860444020240  0.3876422500535737
  0.3292572952642340  0.5106832533661222  0.5011468303821814
  0.4707389364838713  0.6521425428448853  0.4921973112559390
  0.3566817463196946  0.5247525268057608  0.6241020332753309
  0.6227534917644308  0.5117104979069304  0.5331310313952417
  0.5058597692220871  0.5500554546355877  0.6084522110942667
  0.6009357220627206  0.6363501794510744  0.5604288580164568
  0.4783534441342633  0.5163121476463806  0.4896747391427712
  0.5081803831750045  0.7384458195817523  0.5814147844282094
  0.4090200127772760  0.6456469653223860  0.6104222262155854

  0.00000000E+00  0.00000000E+00  0.00000000E+00
  0.00000000E+00  0.00000000E+00  0.00000000E+00
  0.00000000E+00  0.00000000E+00  0.00000000E+00
  0.00000000E+00  0.00000000E+00  0.00000000E+00
  0.00000000E+00  0.00000000E+00  0.00000000E+00
  0.00000000E+00  0.00000000E+00  0.00000000E+00
  0.00000000E+00  0.00000000E+00  0.00000000E+00
  0.00000000E+00  0.00000000E+00  0.00000000E+00
  0.00000000E+00  0.00000000E+00  0.00000000E+00
  0.00000000E+00  0.00000000E+00  0.00000000E+00
  0.00000000E+00  0.00000000E+00  0.00000000E+00
  0.00000000E+00  0.00000000E+00  0.00000000E+00
  0.00000000E+00  0.00000000E+00  0.00000000E+00
  0.00000000E+00  0.00000000E+00  0.00000000E+00
  0.00000000E+00  0.00000000E+00  0.00000000E+00
  0.00000000E+00  0.00000000E+00  0.00000000E+00
  0.00000000E+00  0.00000000E+00  0.00000000E+00
  0.00000000E+00  0.00000000E+00  0.00000000E+00
  0.00000000E+00  0.00000000E+00  0.00000000E+00
  0.00000000E+00  0.00000000E+00  0.00000000E+00
  0.00000000E+00  0.00000000E+00  0.00000000E+00
  0.00000000E+00  0.00000000E+00  0.00000000E+00
  0.00000000E+00  0.00000000E+00  0.00000000E+00
  0.00000000E+00  0.00000000E+00  0.00000000E+00
  0.00000000E+00  0.00000000E+00  0.00000000E+00
  0.00000000E+00  0.00000000E+00  0.00000000E+00
  0.00000000E+00  0.00000000E+00  0.00000000E+00
  0.00000000E+00  0.00000000E+00  0.00000000E+00
  0.00000000E+00  0.00000000E+00  0.00000000E+00
  0.00000000E+00  0.00000000E+00  0.00000000E+00
  0.00000000E+00  0.00000000E+00  0.00000000E+00
  0.00000000E+00  0.00000000E+00  0.00000000E+00
  0.00000000E+00  0.00000000E+00  0.00000000E+00
  0.00000000E+00  0.00000000E+00  0.00000000E+00
  0.00000000E+00  0.00000000E+00  0.00000000E+00
  0.00000000E+00  0.00000000E+00  0.00000000E+00
  0.00000000E+00  0.00000000E+00  0.00000000E+00
  0.00000000E+00  0.00000000E+00  0.00000000E+00
  0.00000000E+00  0.00000000E+00  0.00000000E+00
  0.00000000E+00  0.00000000E+00  0.00000000E+00
  0.00000000E+00  0.00000000E+00  0.00000000E+00
  0.00000000E+00  0.00000000E+00  0.00000000E+00
  0.00000000E+00  0.00000000E+00  0.00000000E+00
  0.00000000E+00  0.00000000E+00  0.00000000E+00
  0.00000000E+00  0.00000000E+00  0.00000000E+00
  0.00000000E+00  0.00000000E+00  0.00000000E+00
  0.00000000E+00  0.00000000E+00  0.00000000E+00
  0.00000000E+00  0.00000000E+00  0.00000000E+00
  0.00000000E+00  0.00000000E+00  0.00000000E+00
  0.00000000E+00  0.00000000E+00  0.00000000E+00
  0.00000000E+00  0.00000000E+00  0.00000000E+00
  0.00000000E+00  0.00000000E+00  0.00000000E+00
  0.00000000E+00  0.00000000E+00  0.00000000E+00
  0.00000000E+00  0.00000000E+00  0.00000000E+00
  0.00000000E+00  0.00000000E+00  0.00000000E+00
  0.00000000E+00  0.00000000E+00  0.00000000E+00
  0.00000000E+00  0.00000000E+00  0.00000000E+00
  0.00000000E+00  0.00000000E+00  0.00000000E+00
  0.00000000E+00  0.00000000E+00  0.00000000E+00
  0.00000000E+00  0.00000000E+00  0.00000000E+00
  0.00000000E+00  0.00000000E+00  0.00000000E+00
  0.00000000E+00  0.00000000E+00  0.00000000E+00
  0.00000000E+00  0.00000000E+00  0.00000000E+00
  0.00000000E+00  0.00000000E+00  0.00000000E+00
  0.00000000E+00  0.00000000E+00  0.00000000E+00
  0.00000000E+00  0.00000000E+00  0.00000000E+00
  0.00000000E+00  0.00000000E+00  0.00000000E+00
  0.00000000E+00  0.00000000E+00  0.00000000E+00
  0.00000000E+00  0.00000000E+00  0.00000000E+00
  0.00000000E+00  0.00000000E+00  0.00000000E+00
  0.00000000E+00  0.00000000E+00  0.00000000E+00
  0.00000000E+00  0.00000000E+00  0.00000000E+00
  0.00000000E+00  0.00000000E+00  0.00000000E+00
  0.00000000E+00  0.00000000E+00  0.00000000E+00
  0.00000000E+00  0.00000000E+00  0.00000000E+00
  0.00000000E+00  0.00000000E+00  0.00000000E+00
  0.00000000E+00  0.00000000E+00  0.00000000E+00
  0.00000000E+00  0.00000000E+00  0.00000000E+00
  0.00000000E+00  0.00000000E+00  0.00000000E+00
  0.00000000E+00  0.00000000E+00  0.00000000E+00
  0.00000000E+00  0.00000000E+00  0.00000000E+00
  0.00000000E+00  0.00000000E+00  0.00000000E+00
  0.00000000E+00  0.00000000E+00  0.00000000E+00
  0.00000000E+00  0.00000000E+00  0.00000000E+00
  0.00000000E+00  0.00000000E+00  0.00000000E+00
  0.00000000E+00  0.00000000E+00  0.00000000E+00
  0.00000000E+00  0.00000000E+00  0.00000000E+00
  0.00000000E+00  0.00000000E+00  0.00000000E+00
  0.00000000E+00  0.00000000E+00  0.00000000E+00
  0.00000000E+00  0.00000000E+00  0.00000000E+00
  0.00000000E+00  0.00000000E+00  0.00000000E+00
  0.00000000E+00  0.00000000E+00  0.00000000E+00
  0.00000000E+00  0.00000000E+00  0.00000000E+00
  0.00000000E+00  0.00000000E+00  0.00000000E+00
  0.00000000E+00  0.00000000E+00  0.00000000E+00
  0.00000000E+00  0.00000000E+00  0.00000000E+00
  0.00000000E+00  0.00000000E+00  0.00000000E+00
  0.00000000E+00  0.00000000E+00  0.00000000E+00
  0.00000000E+00  0.00000000E+00  0.00000000E+00
  0.00000000E+00  0.00000000E+00  0.00000000E+00
  0.00000000E+00  0.00000000E+00  0.00000000E+00
  0.00000000E+00  0.00000000E+00  0.00000000E+00
  0.00000000E+00  0.00000000E+00  0.00000000E+00
  0.00000000E+00  0.00000000E+00  0.00000000E+00
  0.00000000E+00  0.00000000E+00  0.00000000E+00
  0.00000000E+00  0.00000000E+00  0.00000000E+00
  0.00000000E+00  0.00000000E+00  0.00000000E+00
  0.00000000E+00  0.00000000E+00  0.00000000E+00
  0.00000000E+00  0.00000000E+00  0.00000000E+00
  0.00000000E+00  0.00000000E+00  0.00000000E+00
  0.00000000E+00  0.00000000E+00  0.00000000E+00
  0.00000000E+00  0.00000000E+00  0.00000000E+00
  0.00000000E+00  0.00000000E+00  0.00000000E+00
  0.00000000E+00  0.00000000E+00  0.00000000E+00
  0.00000000E+00  0.00000000E+00  0.00000000E+00
  0.00000000E+00  0.00000000E+00  0.00000000E+00
  0.00000000E+00  0.00000000E+00  0.00000000E+00
  0.00000000E+00  0.00000000E+00  0.00000000E+00
  0.00000000E+00  0.00000000E+00  0.00000000E+00
  0.00000000E+00  0.00000000E+00  0.00000000E+00
  0.00000000E+00  0.00000000E+00  0.00000000E+00
  0.00000000E+00  0.00000000E+00  0.00000000E+00
  0.00000000E+00  0.00000000E+00  0.00000000E+00
  0.00000000E+00  0.00000000E+00  0.00000000E+00
  0.00000000E+00  0.00000000E+00  0.00000000E+00
  0.00000000E+00  0.00000000E+00  0.00000000E+00
  0.00000000E+00  0.00000000E+00  0.00000000E+00
  0.00000000E+00  0.00000000E+00  0.00000000E+00
  0.00000000E+00  0.00000000E+00  0.00000000E+00
  0.00000000E+00  0.00000000E+00  0.00000000E+00
  0.00000000E+00  0.00000000E+00  0.00000000E+00
  0.00000000E+00  0.00000000E+00  0.00000000E+00
  0.00000000E+00  0.00000000E+00  0.00000000E+00
  0.00000000E+00  0.00000000E+00  0.00000000E+00
  0.00000000E+00  0.00000000E+00  0.00000000E+00
  0.00000000E+00  0.00000000E+00  0.00000000E+00
  0.00000000E+00  0.00000000E+00  0.00000000E+00
