 C Pt                                   
   1.0000000000000000     
    17.0979999999999990    0.0000000000000000    0.0000000000000000
     0.0000000000000000   19.7420000000000009    0.0000000000000000
     0.0000000000000000    0.0000000000000000   20.0000000000000000
   C    Pt
   128     9
Direct
  0.9166336987058844  0.4684653846312261  0.3862081150488983
  0.9168696899590831  0.5937813306828681  0.3856139330854416
  0.9168672011563215  0.7187957676982191  0.3856953532716019
  0.9170241686448828  0.8435352536759008  0.3858224476865089
  0.9170080702923060  0.9684387275225157  0.3856385736496019
  0.9170238103657216  0.0936309406725370  0.3853949120170773
  0.9170612735083650  0.2183957200574128  0.3854803263579397
  0.9168577212888843  0.3433411749351044  0.3858060252300263
  0.7920735470915876  0.4059079659242608  0.3861329059236037
  0.7919791772204680  0.5313087460280072  0.3846441676275451
  0.7920521695327509  0.6562324970474326  0.3839714377719247
  0.7921585047845939  0.7812306033496330  0.3852956467893939
  0.7919674049705413  0.9060622574745646  0.3860819340287410
  0.7919515414818615  0.0309225144607485  0.3854546503437407
  0.7920832820331913  0.1559845105467615  0.3849815891040350
  0.7922220284433036  0.2808973599342004  0.3850667112418826
  0.6674066415459906  0.4688089789096364  0.3860084593192813
  0.6671782636580325  0.5939461615730591  0.3776162475043045
  0.6670320734988975  0.7187411884467033  0.3814835554674795
  0.6671934570470082  0.8436623332753742  0.3849735422286836
  0.6669948915489724  0.9685373965036510  0.3860619503750778
  0.6669785035289632  0.0933658664724540  0.3852250053943347
  0.6672028994433582  0.2182975733831816  0.3836606105590550
  0.6677088475434780  0.3431929496868293  0.3828288987848296
  0.5430995585232155  0.4050577842244926  0.3839168996012833
  0.5417456810044712  0.5323058967516019  0.3722628594373504
  0.5421717146699454  0.6563343524142887  0.3758025545051448
  0.5419694181917547  0.7810497517199292  0.3831657765591412
  0.5420930051345592  0.9062145461279371  0.3857076954405875
  0.5420267084162489  0.0308436600739773  0.3858714256436673
  0.5421534001895690  0.1557029701671051  0.3845564473046141
  0.5419620177071791  0.2806838741171951  0.3832423578617205
  0.4176740514055292  0.4687119760202407  0.3862525688056156
  0.4176683541846392  0.5941461741447026  0.3769874920324651
  0.4169864998189153  0.7186300287670256  0.3829705612417877
  0.4169669442365062  0.8434304093951349  0.3854851451711602
  0.4170457836128377  0.9685654107597172  0.3858285079185991
  0.4169787669654217  0.0931686445059469  0.3854056319801683
  0.4169579105415346  0.2181597318821406  0.3845165540206690
  0.4162645143303256  0.3421803035656016  0.3858565917412433
  0.2911657390919988  0.4052645089578490  0.3848572445626118
  0.2908282161380205  0.5307893989392285  0.3882616784692604
  0.2916372329909075  0.6566500942824055  0.3866210148362774
  0.2919746362340797  0.7811588922693451  0.3857512923745876
  0.2920399308120582  0.9060760530091548  0.3854534965685950
  0.2919211741880482  0.0308739728580681  0.3856620241370755
  0.2918965032266291  0.1557560394003151  0.3850761844417777
  0.2916528681566712  0.2806414310229781  0.3838225120008299
  0.1661691954873125  0.4683350999850995  0.3843873857485238
  0.1662938575347959  0.5936942728043884  0.3854228542720210
  0.1669109082636339  0.7186432649586535  0.3854608683513606
  0.1669946983746299  0.8436034355042380  0.3852306760188758
  0.1670475365456645  0.9687087867237330  0.3853982809998929
  0.1669018485499019  0.0932578254070143  0.3855751312818235
  0.1667820696456608  0.2182725498807854  0.3846811537842329
  0.1666428137187259  0.3433860155280214  0.3835042329230934
  0.0415382423776129  0.4059665967813014  0.3844573648840846
  0.0415943347013201  0.5311145583461989  0.3847674228680567
  0.0417983095532825  0.6561060085059580  0.3849757124297480
  0.0418694293850633  0.7811783274255903  0.3851233625375909
  0.0419085095070910  0.9061435652039314  0.3852838840148459
  0.0422188505585763  0.0310262498907738  0.3855360276282817
  0.0418828769812909  0.1558405371728158  0.3854653007452182
  0.0416899097558032  0.2808450089032780  0.3847034478983333
  0.8336617529429290  0.4685120872978847  0.3863800139787433
  0.8337140353958893  0.5938848358307293  0.3847856476134022
  0.8337075353446737  0.7187803886316099  0.3852923911705249
  0.8337790307092712  0.8436475435442247  0.3859683567222362
  0.8336363483475684  0.9684149219370548  0.3858152207654978
  0.8337167974676059  0.0935556918806505  0.3851957742659473
  0.8338417141158239  0.2183986846488533  0.3852898015994228
  0.8337493032204208  0.3433570479160572  0.3858890213610027
  0.7091244872049448  0.4056633544625205  0.3851994659958666
  0.7091159591098932  0.5318107142554412  0.3820277499988750
  0.7088070899291102  0.6561991415457668  0.3807766639503411
  0.7088351384171916  0.7811663998595533  0.3841375242326358
  0.7087738584071004  0.9062333521331489  0.3859407022179387
  0.7086287089799270  0.0309027810038154  0.3856691221236432
  0.7087340751177610  0.1557974231116396  0.3846116518036238
  0.7090766538901913  0.2808072298927924  0.3835441812897959
  0.5835607124671338  0.4691310854390174  0.3817389258466111
  0.5838136672968800  0.5942850086875108  0.3729032746265516
  0.5836838855589825  0.7187019620464949  0.3800715305304542
  0.5837103012693307  0.8435845689293738  0.3847609859917661
  0.5837581048015809  0.9685405156253591  0.3860730070632205
  0.5837207045015306  0.0932788548956632  0.3852900288346497
  0.5837690652277027  0.2182694263613468  0.3835689952387425
  0.5841566957986474  0.3427055037576301  0.3824652668766640
  0.4587776902866101  0.4049339409840170  0.3881190327554010
  0.4591347717800642  0.5321138451236219  0.3735897445796736
  0.4588435210265600  0.6564843823352071  0.3778032615334299
  0.4584753293557144  0.7807825451010814  0.3840725859811037
  0.4586448973058869  0.9060655037786901  0.3857572709958983
  0.4588197475755987  0.0308265204553676  0.3857526367741956
  0.4586055721557307  0.1556400511852831  0.3847824386076146
  0.4584842457838745  0.2806334234250668  0.3844283025517737
  0.3327757908080457  0.4678034769642878  0.3875537843788514
  0.3340255645307250  0.5939171356702542  0.3882371892013726
  0.3335810409806643  0.7186832341343966  0.3853153163457148
  0.3335868725999319  0.8435554817572962  0.3855637235680452
  0.3336581646004940  0.9684505556598019  0.3856602129883858
  0.3335572403124232  0.0933334981690758  0.3854875348892859
  0.3335132791490654  0.2182791649139861  0.3845207308561267
  0.3331303156090133  0.3428525401484617  0.3842476526765190
  0.2082661285217243  0.4058050577475678  0.3838675146777056
  0.2068943072294882  0.5309797698853168  0.3860200210275530
  0.2085857160144504  0.6562033208113593  0.3860262942137143
  0.2087039072854381  0.7810485605478495  0.3856410514866371
  0.2086486408900012  0.9062368647273787  0.3852819141991041
  0.2086414645700045  0.0309893068045848  0.3855689333803520
  0.2084734795722960  0.1556586826935790  0.3852193011462403
  0.2083433373661568  0.2809223879402118  0.3838115571839445
  0.0831505380586247  0.4685460801730397  0.3842226818272180
  0.0832882517047975  0.5936104700405610  0.3847384119221530
  0.0835439022904558  0.7186630016645358  0.3849995786401308
  0.0835812856068196  0.8436291605517667  0.3851043045247825
  0.0837644531825672  0.9685322921511887  0.3853865984112909
  0.0836988759028933  0.0935255145594726  0.3855929805703853
  0.0834026084099823  0.2183064952725424  0.3849985626564145
  0.0833769496273760  0.3433486210491096  0.3839901614051085
  0.9583705578724779  0.4058930682901751  0.3856980177400906
  0.9584644145021506  0.5311420744456115  0.3856230326959505
  0.9585728846398883  0.6562759318762147  0.3854554325136896
  0.9586574285920938  0.7811788285827476  0.3855883361739235
  0.9586951648477876  0.9059803506089893  0.3856037105962072
  0.9588229301735698  0.0310382457251138  0.3854796010947644
  0.9587160941777677  0.1559727969663702  0.3854486612592748
  0.9585392417764307  0.2809258865804206  0.3853480369054654
  0.4718068945002213  0.5927690524341617  0.5350172953116671
  0.5384081231489192  0.4956932493663743  0.6075889694559051
  0.5883995337405566  0.4743752832495180  0.4902479079236141
  0.4449708833562079  0.3967223909854772  0.6140265258836367
  0.3770674969806637  0.5087326892752854  0.6115307694388423
  0.3328192997571291  0.5412306359273784  0.4921154307043797
  0.3411311413709074  0.6309758887455021  0.5834690361355603
  0.4398804985466691  0.4342221727239617  0.4909708740899089
  0.6175045784033011  0.5878145287336187  0.5474257469198435

  0.00000000E+00  0.00000000E+00  0.00000000E+00
  0.00000000E+00  0.00000000E+00  0.00000000E+00
  0.00000000E+00  0.00000000E+00  0.00000000E+00
  0.00000000E+00  0.00000000E+00  0.00000000E+00
  0.00000000E+00  0.00000000E+00  0.00000000E+00
  0.00000000E+00  0.00000000E+00  0.00000000E+00
  0.00000000E+00  0.00000000E+00  0.00000000E+00
  0.00000000E+00  0.00000000E+00  0.00000000E+00
  0.00000000E+00  0.00000000E+00  0.00000000E+00
  0.00000000E+00  0.00000000E+00  0.00000000E+00
  0.00000000E+00  0.00000000E+00  0.00000000E+00
  0.00000000E+00  0.00000000E+00  0.00000000E+00
  0.00000000E+00  0.00000000E+00  0.00000000E+00
  0.00000000E+00  0.00000000E+00  0.00000000E+00
  0.00000000E+00  0.00000000E+00  0.00000000E+00
  0.00000000E+00  0.00000000E+00  0.00000000E+00
  0.00000000E+00  0.00000000E+00  0.00000000E+00
  0.00000000E+00  0.00000000E+00  0.00000000E+00
  0.00000000E+00  0.00000000E+00  0.00000000E+00
  0.00000000E+00  0.00000000E+00  0.00000000E+00
  0.00000000E+00  0.00000000E+00  0.00000000E+00
  0.00000000E+00  0.00000000E+00  0.00000000E+00
  0.00000000E+00  0.00000000E+00  0.00000000E+00
  0.00000000E+00  0.00000000E+00  0.00000000E+00
  0.00000000E+00  0.00000000E+00  0.00000000E+00
  0.00000000E+00  0.00000000E+00  0.00000000E+00
  0.00000000E+00  0.00000000E+00  0.00000000E+00
  0.00000000E+00  0.00000000E+00  0.00000000E+00
  0.00000000E+00  0.00000000E+00  0.00000000E+00
  0.00000000E+00  0.00000000E+00  0.00000000E+00
  0.00000000E+00  0.00000000E+00  0.00000000E+00
  0.00000000E+00  0.00000000E+00  0.00000000E+00
  0.00000000E+00  0.00000000E+00  0.00000000E+00
  0.00000000E+00  0.00000000E+00  0.00000000E+00
  0.00000000E+00  0.00000000E+00  0.00000000E+00
  0.00000000E+00  0.00000000E+00  0.00000000E+00
  0.00000000E+00  0.00000000E+00  0.00000000E+00
  0.00000000E+00  0.00000000E+00  0.00000000E+00
  0.00000000E+00  0.00000000E+00  0.00000000E+00
  0.00000000E+00  0.00000000E+00  0.00000000E+00
  0.00000000E+00  0.00000000E+00  0.00000000E+00
  0.00000000E+00  0.00000000E+00  0.00000000E+00
  0.00000000E+00  0.00000000E+00  0.00000000E+00
  0.00000000E+00  0.00000000E+00  0.00000000E+00
  0.00000000E+00  0.00000000E+00  0.00000000E+00
  0.00000000E+00  0.00000000E+00  0.00000000E+00
  0.00000000E+00  0.00000000E+00  0.00000000E+00
  0.00000000E+00  0.00000000E+00  0.00000000E+00
  0.00000000E+00  0.00000000E+00  0.00000000E+00
  0.00000000E+00  0.00000000E+00  0.00000000E+00
  0.00000000E+00  0.00000000E+00  0.00000000E+00
  0.00000000E+00  0.00000000E+00  0.00000000E+00
  0.00000000E+00  0.00000000E+00  0.00000000E+00
  0.00000000E+00  0.00000000E+00  0.00000000E+00
  0.00000000E+00  0.00000000E+00  0.00000000E+00
  0.00000000E+00  0.00000000E+00  0.00000000E+00
  0.00000000E+00  0.00000000E+00  0.00000000E+00
  0.00000000E+00  0.00000000E+00  0.00000000E+00
  0.00000000E+00  0.00000000E+00  0.00000000E+00
  0.00000000E+00  0.00000000E+00  0.00000000E+00
  0.00000000E+00  0.00000000E+00  0.00000000E+00
  0.00000000E+00  0.00000000E+00  0.00000000E+00
  0.00000000E+00  0.00000000E+00  0.00000000E+00
  0.00000000E+00  0.00000000E+00  0.00000000E+00
  0.00000000E+00  0.00000000E+00  0.00000000E+00
  0.00000000E+00  0.00000000E+00  0.00000000E+00
  0.00000000E+00  0.00000000E+00  0.00000000E+00
  0.00000000E+00  0.00000000E+00  0.00000000E+00
  0.00000000E+00  0.00000000E+00  0.00000000E+00
  0.00000000E+00  0.00000000E+00  0.00000000E+00
  0.00000000E+00  0.00000000E+00  0.00000000E+00
  0.00000000E+00  0.00000000E+00  0.00000000E+00
  0.00000000E+00  0.00000000E+00  0.00000000E+00
  0.00000000E+00  0.00000000E+00  0.00000000E+00
  0.00000000E+00  0.00000000E+00  0.00000000E+00
  0.00000000E+00  0.00000000E+00  0.00000000E+00
  0.00000000E+00  0.00000000E+00  0.00000000E+00
  0.00000000E+00  0.00000000E+00  0.00000000E+00
  0.00000000E+00  0.00000000E+00  0.00000000E+00
  0.00000000E+00  0.00000000E+00  0.00000000E+00
  0.00000000E+00  0.00000000E+00  0.00000000E+00
  0.00000000E+00  0.00000000E+00  0.00000000E+00
  0.00000000E+00  0.00000000E+00  0.00000000E+00
  0.00000000E+00  0.00000000E+00  0.00000000E+00
  0.00000000E+00  0.00000000E+00  0.00000000E+00
  0.00000000E+00  0.00000000E+00  0.00000000E+00
  0.00000000E+00  0.00000000E+00  0.00000000E+00
  0.00000000E+00  0.00000000E+00  0.00000000E+00
  0.00000000E+00  0.00000000E+00  0.00000000E+00
  0.00000000E+00  0.00000000E+00  0.00000000E+00
  0.00000000E+00  0.00000000E+00  0.00000000E+00
  0.00000000E+00  0.00000000E+00  0.00000000E+00
  0.00000000E+00  0.00000000E+00  0.00000000E+00
  0.00000000E+00  0.00000000E+00  0.00000000E+00
  0.00000000E+00  0.00000000E+00  0.00000000E+00
  0.00000000E+00  0.00000000E+00  0.00000000E+00
  0.00000000E+00  0.00000000E+00  0.00000000E+00
  0.00000000E+00  0.00000000E+00  0.00000000E+00
  0.00000000E+00  0.00000000E+00  0.00000000E+00
  0.00000000E+00  0.00000000E+00  0.00000000E+00
  0.00000000E+00  0.00000000E+00  0.00000000E+00
  0.00000000E+00  0.00000000E+00  0.00000000E+00
  0.00000000E+00  0.00000000E+00  0.00000000E+00
  0.00000000E+00  0.00000000E+00  0.00000000E+00
  0.00000000E+00  0.00000000E+00  0.00000000E+00
  0.00000000E+00  0.00000000E+00  0.00000000E+00
  0.00000000E+00  0.00000000E+00  0.00000000E+00
  0.00000000E+00  0.00000000E+00  0.00000000E+00
  0.00000000E+00  0.00000000E+00  0.00000000E+00
  0.00000000E+00  0.00000000E+00  0.00000000E+00
  0.00000000E+00  0.00000000E+00  0.00000000E+00
  0.00000000E+00  0.00000000E+00  0.00000000E+00
  0.00000000E+00  0.00000000E+00  0.00000000E+00
  0.00000000E+00  0.00000000E+00  0.00000000E+00
  0.00000000E+00  0.00000000E+00  0.00000000E+00
  0.00000000E+00  0.00000000E+00  0.00000000E+00
  0.00000000E+00  0.00000000E+00  0.00000000E+00
  0.00000000E+00  0.00000000E+00  0.00000000E+00
  0.00000000E+00  0.00000000E+00  0.00000000E+00
  0.00000000E+00  0.00000000E+00  0.00000000E+00
  0.00000000E+00  0.00000000E+00  0.00000000E+00
  0.00000000E+00  0.00000000E+00  0.00000000E+00
  0.00000000E+00  0.00000000E+00  0.00000000E+00
  0.00000000E+00  0.00000000E+00  0.00000000E+00
  0.00000000E+00  0.00000000E+00  0.00000000E+00
  0.00000000E+00  0.00000000E+00  0.00000000E+00
  0.00000000E+00  0.00000000E+00  0.00000000E+00
  0.00000000E+00  0.00000000E+00  0.00000000E+00
  0.00000000E+00  0.00000000E+00  0.00000000E+00
  0.00000000E+00  0.00000000E+00  0.00000000E+00
  0.00000000E+00  0.00000000E+00  0.00000000E+00
  0.00000000E+00  0.00000000E+00  0.00000000E+00
  0.00000000E+00  0.00000000E+00  0.00000000E+00
  0.00000000E+00  0.00000000E+00  0.00000000E+00
  0.00000000E+00  0.00000000E+00  0.00000000E+00
  0.00000000E+00  0.00000000E+00  0.00000000E+00
  0.00000000E+00  0.00000000E+00  0.00000000E+00
