 C Pt                                   
   1.0000000000000000     
    17.0979999999999990    0.0000000000000000    0.0000000000000000
     0.0000000000000000   19.7420000000000009    0.0000000000000000
     0.0000000000000000    0.0000000000000000   20.0000000000000000
   C    Pt
   128     9
Direct
  0.8536760185489928  0.5940357767153360  0.3799682758943402
  0.8538505698786921  0.7192537443825086  0.3795259762260896
  0.8539565529816735  0.8442077508448634  0.3796267078301615
  0.8539563747611679  0.9691331619929926  0.3795157506225624
  0.8539499843144965  0.0940420987385664  0.3793985661771890
  0.8539103119390048  0.2189606088606322  0.3794091857514241
  0.8538454011775910  0.3438995727517948  0.3797822162895327
  0.8537212352836434  0.4689032677155410  0.3807151243474684
  0.7293277398983954  0.5314977920574055  0.3842729414613889
  0.7289283378187789  0.6566667790215728  0.3801290512357472
  0.7290204672841136  0.7817836934564797  0.3799616693562431
  0.7291198554202647  0.9066402808681377  0.3799712215806776
  0.7289956886906652  0.0315313947322961  0.3792736965343933
  0.7290189158402800  0.1563330119229603  0.3796109664916197
  0.7289943387213875  0.2812633105402963  0.3803216783666747
  0.7289795241547151  0.4060715112583361  0.3824418227938566
  0.6033341680713054  0.5946092263831267  0.3784227165024344
  0.6044811098007825  0.7193199955736612  0.3818569585877603
  0.6039952839353052  0.8443767830858994  0.3806814206877636
  0.6039767031806875  0.9691012012389776  0.3801082074364948
  0.6040089865248717  0.0938404590192154  0.3796264820414458
  0.6040431842280055  0.2186470544367055  0.3794863570492746
  0.6039170634585149  0.3433223415800542  0.3799258188115478
  0.6032829792095488  0.4680588042735431  0.3855216083779579
  0.4789976654202792  0.5309061621623594  0.3783046365273868
  0.4783366573048375  0.6561384733952464  0.3735823918794406
  0.4784112579644084  0.7822558377223821  0.3809323328388158
  0.4788319445138425  0.9066046147451516  0.3798789783798728
  0.4788085098202318  0.0314640333237059  0.3800673878617179
  0.4788548600665219  0.1563367074920303  0.3798236761845570
  0.4788821883991140  0.2810233418270730  0.3774417186283759
  0.4786261879305613  0.4054404952840183  0.3735008744360406
  0.3532641475818222  0.5946665405486892  0.3809461523990373
  0.3537588588790598  0.7195930648000100  0.3741614260804991
  0.3536176331679930  0.8442394693113814  0.3775963162166560
  0.3536320964687878  0.9689800905332895  0.3795570980924816
  0.3537144042760034  0.0938476771337942  0.3803846596395487
  0.3537019251409428  0.2187509429092405  0.3789000933965011
  0.3533798223898578  0.3432982521963792  0.3756725292165226
  0.3529292925165309  0.4673132926176266  0.3766185440705351
  0.2277829275542302  0.5303944997985357  0.3819442506137777
  0.2276073960609802  0.6573475567049880  0.3794414319130888
  0.2284488265884444  0.7817756923345622  0.3770647653352397
  0.2286425289627961  0.9066007900087024  0.3787969672936353
  0.2287088962885014  0.0315007793797350  0.3799110105101803
  0.2286481730505437  0.1564150115667337  0.3801080616654237
  0.2284494076730833  0.2810780563794006  0.3790943546270303
  0.2282508258035412  0.4058404005925938  0.3787766938828900
  0.1034557521049906  0.5939668821110595  0.3807461678641716
  0.1033785149263998  0.7193644186471880  0.3792662766849656
  0.1035907069060862  0.8442074177195282  0.3795960636814244
  0.1036727725060885  0.9691542218245296  0.3798085500983635
  0.1038217933712193  0.0940050331844405  0.3797871603702098
  0.1036349722123748  0.2188498608324755  0.3798016219124976
  0.1033871079879339  0.3436714029228821  0.3796879289540631
  0.1032756534054154  0.4686458531596384  0.3806570895497101
  0.9786222055293047  0.5314382867061627  0.3799558436000156
  0.9785846501367214  0.6567175258220231  0.3797109110228322
  0.9785793627790957  0.7818115724797535  0.3798459337487797
  0.9788668026420033  0.9067377163473684  0.3799016741721594
  0.9788678484686666  0.0316201295921903  0.3796448821676971
  0.9787906791898858  0.1565174875179580  0.3795723455805574
  0.9786362593978063  0.2814508861819114  0.3791491436227890
  0.9785343237027614  0.4063388378461373  0.3790634436441138
  0.7706163620357485  0.5939341221648673  0.3812414965548701
  0.7705618525167277  0.7191683290291951  0.3799935298823818
  0.7707437920643996  0.8442493247151196  0.3797154141719083
  0.7706921938712038  0.9691345210940729  0.3795331434211932
  0.7706732029479867  0.0939314658185245  0.3792879396222882
  0.7706641738335563  0.2188046457214308  0.3797911707372997
  0.7706467234209496  0.3437730442348628  0.3807661246559490
  0.7705544376865627  0.4689014882692864  0.3826853480305226
  0.6452651023711453  0.5318916461412844  0.3872106240926421
  0.6457276450434835  0.6567316492921006  0.3791530225243568
  0.6458506871560686  0.7819903837814437  0.3810286020516547
  0.6456318283340980  0.9065682215215608  0.3803322061533005
  0.6456749117618633  0.0314607042970501  0.3795324161912761
  0.6457620187146728  0.1562627481793203  0.3796465728640541
  0.6457492240860330  0.2810299005212966  0.3799695259486696
  0.6460001859548152  0.4053384180510556  0.3830857191096627
  0.5208005378570237  0.5943894205762565  0.3733005351016684
  0.5200425136187575  0.7188110645069733  0.3841295582512914
  0.5205191395972506  0.8443220531921294  0.3807661649698114
  0.5206146258142265  0.9690127085487946  0.3800175176196863
  0.5205887501440778  0.0938738334142433  0.3799760010964531
  0.5206672719214578  0.2186729721032683  0.3791798525445674
  0.5206520754717449  0.3432355673500663  0.3765786941147712
  0.5199614720434602  0.4671664597818962  0.3762484199352452
  0.3950949658712022  0.5299284520417186  0.3805551681752483
  0.3956074673263039  0.6572419980562192  0.3731308432106588
  0.3952118947803169  0.7818740222337545  0.3765574128516948
  0.3953478430321162  0.9065310497948943  0.3793633345261045
  0.3954111804504500  0.0313941926631593  0.3800566764984640
  0.3954450154494185  0.1562833802624358  0.3800093589003898
  0.3953270584953530  0.2809440680485260  0.3769131886745898
  0.3948429498015942  0.4053652135344672  0.3737765709090715
  0.2690552678036174  0.5939744793232450  0.3833212382855877
  0.2702081548992509  0.7194260492915586  0.3761646025959782
  0.2702262454920966  0.8442260929680375  0.3776718851159799
  0.2703351313567899  0.9690135597964545  0.3792093086060786
  0.2703357543967716  0.0938590666014397  0.3803384603705300
  0.2702447602811336  0.2187545754261982  0.3794798720748868
  0.2700179692314683  0.3434260188617445  0.3776381751513327
  0.2697496625313818  0.4680695394345719  0.3789072814174602
  0.1448888501027780  0.5311649484680284  0.3815459682211116
  0.1447992719405078  0.6567824302972916  0.3798693365090581
  0.1452100721646895  0.7816846977186768  0.3785760885058259
  0.1452663081149648  0.9066271690248838  0.3794120059370604
  0.1454247199848083  0.0315259502486023  0.3799113957943075
  0.1453186012106014  0.1563888647180095  0.3798309366669913
  0.1451015846111973  0.2811776982276142  0.3797997283624889
  0.1449202681987030  0.4060831119757968  0.3799638463372642
  0.0204196561581241  0.5940192630443584  0.3801022273548461
  0.0201804206593656  0.7193210815097788  0.3797552039309874
  0.0203468612644585  0.8442440356016118  0.3801128802570968
  0.0204709368399281  0.9691424978112835  0.3798163370758700
  0.0205439016772532  0.0939820865833593  0.3796249195379696
  0.0203059633465062  0.2189879702418913  0.3795768457226619
  0.0201408893921600  0.3438862290003628  0.3791637912273206
  0.0201332163150167  0.4687930937829894  0.3798316380825398
  0.8953899170083421  0.5314861244214488  0.3801401073865737
  0.8953732403039831  0.6567311648371464  0.3793501549050550
  0.8954499035233812  0.7816971652651638  0.3795806931702975
  0.8956033957070536  0.9066501678640038  0.3796483250440424
  0.8956278340315421  0.0316353110634717  0.3795328443114488
  0.8955225405054160  0.1565203576313949  0.3794088716224039
  0.8954254139591261  0.2814229754659610  0.3792148864547861
  0.8953802010910712  0.4063989939373885  0.3796298301789015
  0.5411035810585594  0.6051541773993201  0.5584516179976482
  0.5987377139617617  0.4995078062002416  0.4944544459366366
  0.5196534249838649  0.7114744087080529  0.4958435335633652
  0.2938473380154551  0.5984050923454638  0.6126954769477736
  0.3160728875789562  0.6014536034289674  0.4867270222304789
  0.4415051015543073  0.5274746150524713  0.4857330198853351
  0.4189521157000319  0.5332785936715559  0.6123808952759110
  0.4072452712972085  0.6712688595039801  0.5661714286508317
  0.5541869631297887  0.4863602180370425  0.6130354238378429

  0.00000000E+00  0.00000000E+00  0.00000000E+00
  0.00000000E+00  0.00000000E+00  0.00000000E+00
  0.00000000E+00  0.00000000E+00  0.00000000E+00
  0.00000000E+00  0.00000000E+00  0.00000000E+00
  0.00000000E+00  0.00000000E+00  0.00000000E+00
  0.00000000E+00  0.00000000E+00  0.00000000E+00
  0.00000000E+00  0.00000000E+00  0.00000000E+00
  0.00000000E+00  0.00000000E+00  0.00000000E+00
  0.00000000E+00  0.00000000E+00  0.00000000E+00
  0.00000000E+00  0.00000000E+00  0.00000000E+00
  0.00000000E+00  0.00000000E+00  0.00000000E+00
  0.00000000E+00  0.00000000E+00  0.00000000E+00
  0.00000000E+00  0.00000000E+00  0.00000000E+00
  0.00000000E+00  0.00000000E+00  0.00000000E+00
  0.00000000E+00  0.00000000E+00  0.00000000E+00
  0.00000000E+00  0.00000000E+00  0.00000000E+00
  0.00000000E+00  0.00000000E+00  0.00000000E+00
  0.00000000E+00  0.00000000E+00  0.00000000E+00
  0.00000000E+00  0.00000000E+00  0.00000000E+00
  0.00000000E+00  0.00000000E+00  0.00000000E+00
  0.00000000E+00  0.00000000E+00  0.00000000E+00
  0.00000000E+00  0.00000000E+00  0.00000000E+00
  0.00000000E+00  0.00000000E+00  0.00000000E+00
  0.00000000E+00  0.00000000E+00  0.00000000E+00
  0.00000000E+00  0.00000000E+00  0.00000000E+00
  0.00000000E+00  0.00000000E+00  0.00000000E+00
  0.00000000E+00  0.00000000E+00  0.00000000E+00
  0.00000000E+00  0.00000000E+00  0.00000000E+00
  0.00000000E+00  0.00000000E+00  0.00000000E+00
  0.00000000E+00  0.00000000E+00  0.00000000E+00
  0.00000000E+00  0.00000000E+00  0.00000000E+00
  0.00000000E+00  0.00000000E+00  0.00000000E+00
  0.00000000E+00  0.00000000E+00  0.00000000E+00
  0.00000000E+00  0.00000000E+00  0.00000000E+00
  0.00000000E+00  0.00000000E+00  0.00000000E+00
  0.00000000E+00  0.00000000E+00  0.00000000E+00
  0.00000000E+00  0.00000000E+00  0.00000000E+00
  0.00000000E+00  0.00000000E+00  0.00000000E+00
  0.00000000E+00  0.00000000E+00  0.00000000E+00
  0.00000000E+00  0.00000000E+00  0.00000000E+00
  0.00000000E+00  0.00000000E+00  0.00000000E+00
  0.00000000E+00  0.00000000E+00  0.00000000E+00
  0.00000000E+00  0.00000000E+00  0.00000000E+00
  0.00000000E+00  0.00000000E+00  0.00000000E+00
  0.00000000E+00  0.00000000E+00  0.00000000E+00
  0.00000000E+00  0.00000000E+00  0.00000000E+00
  0.00000000E+00  0.00000000E+00  0.00000000E+00
  0.00000000E+00  0.00000000E+00  0.00000000E+00
  0.00000000E+00  0.00000000E+00  0.00000000E+00
  0.00000000E+00  0.00000000E+00  0.00000000E+00
  0.00000000E+00  0.00000000E+00  0.00000000E+00
  0.00000000E+00  0.00000000E+00  0.00000000E+00
  0.00000000E+00  0.00000000E+00  0.00000000E+00
  0.00000000E+00  0.00000000E+00  0.00000000E+00
  0.00000000E+00  0.00000000E+00  0.00000000E+00
  0.00000000E+00  0.00000000E+00  0.00000000E+00
  0.00000000E+00  0.00000000E+00  0.00000000E+00
  0.00000000E+00  0.00000000E+00  0.00000000E+00
  0.00000000E+00  0.00000000E+00  0.00000000E+00
  0.00000000E+00  0.00000000E+00  0.00000000E+00
  0.00000000E+00  0.00000000E+00  0.00000000E+00
  0.00000000E+00  0.00000000E+00  0.00000000E+00
  0.00000000E+00  0.00000000E+00  0.00000000E+00
  0.00000000E+00  0.00000000E+00  0.00000000E+00
  0.00000000E+00  0.00000000E+00  0.00000000E+00
  0.00000000E+00  0.00000000E+00  0.00000000E+00
  0.00000000E+00  0.00000000E+00  0.00000000E+00
  0.00000000E+00  0.00000000E+00  0.00000000E+00
  0.00000000E+00  0.00000000E+00  0.00000000E+00
  0.00000000E+00  0.00000000E+00  0.00000000E+00
  0.00000000E+00  0.00000000E+00  0.00000000E+00
  0.00000000E+00  0.00000000E+00  0.00000000E+00
  0.00000000E+00  0.00000000E+00  0.00000000E+00
  0.00000000E+00  0.00000000E+00  0.00000000E+00
  0.00000000E+00  0.00000000E+00  0.00000000E+00
  0.00000000E+00  0.00000000E+00  0.00000000E+00
  0.00000000E+00  0.00000000E+00  0.00000000E+00
  0.00000000E+00  0.00000000E+00  0.00000000E+00
  0.00000000E+00  0.00000000E+00  0.00000000E+00
  0.00000000E+00  0.00000000E+00  0.00000000E+00
  0.00000000E+00  0.00000000E+00  0.00000000E+00
  0.00000000E+00  0.00000000E+00  0.00000000E+00
  0.00000000E+00  0.00000000E+00  0.00000000E+00
  0.00000000E+00  0.00000000E+00  0.00000000E+00
  0.00000000E+00  0.00000000E+00  0.00000000E+00
  0.00000000E+00  0.00000000E+00  0.00000000E+00
  0.00000000E+00  0.00000000E+00  0.00000000E+00
  0.00000000E+00  0.00000000E+00  0.00000000E+00
  0.00000000E+00  0.00000000E+00  0.00000000E+00
  0.00000000E+00  0.00000000E+00  0.00000000E+00
  0.00000000E+00  0.00000000E+00  0.00000000E+00
  0.00000000E+00  0.00000000E+00  0.00000000E+00
  0.00000000E+00  0.00000000E+00  0.00000000E+00
  0.00000000E+00  0.00000000E+00  0.00000000E+00
  0.00000000E+00  0.00000000E+00  0.00000000E+00
  0.00000000E+00  0.00000000E+00  0.00000000E+00
  0.00000000E+00  0.00000000E+00  0.00000000E+00
  0.00000000E+00  0.00000000E+00  0.00000000E+00
  0.00000000E+00  0.00000000E+00  0.00000000E+00
  0.00000000E+00  0.00000000E+00  0.00000000E+00
  0.00000000E+00  0.00000000E+00  0.00000000E+00
  0.00000000E+00  0.00000000E+00  0.00000000E+00
  0.00000000E+00  0.00000000E+00  0.00000000E+00
  0.00000000E+00  0.00000000E+00  0.00000000E+00
  0.00000000E+00  0.00000000E+00  0.00000000E+00
  0.00000000E+00  0.00000000E+00  0.00000000E+00
  0.00000000E+00  0.00000000E+00  0.00000000E+00
  0.00000000E+00  0.00000000E+00  0.00000000E+00
  0.00000000E+00  0.00000000E+00  0.00000000E+00
  0.00000000E+00  0.00000000E+00  0.00000000E+00
  0.00000000E+00  0.00000000E+00  0.00000000E+00
  0.00000000E+00  0.00000000E+00  0.00000000E+00
  0.00000000E+00  0.00000000E+00  0.00000000E+00
  0.00000000E+00  0.00000000E+00  0.00000000E+00
  0.00000000E+00  0.00000000E+00  0.00000000E+00
  0.00000000E+00  0.00000000E+00  0.00000000E+00
  0.00000000E+00  0.00000000E+00  0.00000000E+00
  0.00000000E+00  0.00000000E+00  0.00000000E+00
  0.00000000E+00  0.00000000E+00  0.00000000E+00
  0.00000000E+00  0.00000000E+00  0.00000000E+00
  0.00000000E+00  0.00000000E+00  0.00000000E+00
  0.00000000E+00  0.00000000E+00  0.00000000E+00
  0.00000000E+00  0.00000000E+00  0.00000000E+00
  0.00000000E+00  0.00000000E+00  0.00000000E+00
  0.00000000E+00  0.00000000E+00  0.00000000E+00
  0.00000000E+00  0.00000000E+00  0.00000000E+00
  0.00000000E+00  0.00000000E+00  0.00000000E+00
  0.00000000E+00  0.00000000E+00  0.00000000E+00
  0.00000000E+00  0.00000000E+00  0.00000000E+00
  0.00000000E+00  0.00000000E+00  0.00000000E+00
  0.00000000E+00  0.00000000E+00  0.00000000E+00
  0.00000000E+00  0.00000000E+00  0.00000000E+00
  0.00000000E+00  0.00000000E+00  0.00000000E+00
  0.00000000E+00  0.00000000E+00  0.00000000E+00
  0.00000000E+00  0.00000000E+00  0.00000000E+00
  0.00000000E+00  0.00000000E+00  0.00000000E+00
  0.00000000E+00  0.00000000E+00  0.00000000E+00
