 C Pt                                   
   1.0000000000000000     
    17.0979999999999990    0.0000000000000000    0.0000000000000000
     0.0000000000000000   19.7420000000000009    0.0000000000000000
     0.0000000000000000    0.0000000000000000   20.0000000000000000
   C    Pt
   128     9
Direct
  0.9166000281531604  0.4684295899541851  0.3689176787268831
  0.9164648455387552  0.5934964944415118  0.3685792526824014
  0.9165427710697920  0.7187334627057040  0.3678237646956371
  0.9165225459962026  0.8438066610026087  0.3678905971589687
  0.9165187389640364  0.9686907054985535  0.3681922101106724
  0.9164816605167230  0.0936352902242917  0.3681764404419480
  0.9164365125016795  0.2184587312565618  0.3685885708744316
  0.9164955110476172  0.3434147249173028  0.3693893050511234
  0.7914279969430319  0.4057874454701058  0.3681536873836035
  0.7920704792362071  0.5307579622577080  0.3692248511569797
  0.7915114869383130  0.6562345072859501  0.3679414759424873
  0.7916890766834029  0.7812853187778306  0.3669879126891427
  0.7915560710080813  0.9062973634813974  0.3675313024289497
  0.7915041659578755  0.0311474502298419  0.3683808765211060
  0.7915546504635459  0.1560759974008960  0.3686671798295891
  0.7914627517111861  0.2808906373430102  0.3688102265650258
  0.6662476312359530  0.4675142015838782  0.3614683742181096
  0.6661400167675001  0.5935138547566017  0.3697468116834630
  0.6671984668136841  0.7189981848223979  0.3690322692268427
  0.6664589160811519  0.8438585286355964  0.3670814390099435
  0.6665062809614067  0.9687543331568127  0.3675001428750795
  0.6665155138299366  0.0935989930936197  0.3690588385035710
  0.6664131205482219  0.2184085787191928  0.3684204815341673
  0.6664091586100660  0.3432271018273687  0.3650167288458782
  0.5414184746665041  0.4054539251231183  0.3570101816260998
  0.5415435970630053  0.5306013607323713  0.3538028433671230
  0.5411121103244043  0.6555938427211240  0.3695660796443202
  0.5411930684263574  0.7816663522625774  0.3685539092269823
  0.5414469075057323  0.9063588267996249  0.3666122086978854
  0.5414774694005798  0.0312044000357138  0.3683057887987509
  0.5415058803591799  0.1560562976736485  0.3687218645553599
  0.5414110232740995  0.2807939846588637  0.3654081691441680
  0.4159504145269528  0.4678691997082461  0.3557373781333979
  0.4156774928198879  0.5930954746185712  0.3675918681489196
  0.4157844750005328  0.7191310226936678  0.3663867090600950
  0.4163174826521313  0.8438901243892302  0.3660668367631653
  0.4164746897111761  0.9687351103791176  0.3674774068191000
  0.4164915597187415  0.0936275701518127  0.3689284173294775
  0.4164382061431355  0.2184341346418004  0.3669519523958200
  0.4163354197119579  0.3431715975212726  0.3612088894830728
  0.2911889041847556  0.4057511068862210  0.3623352388832378
  0.2906904343945602  0.5307071016770871  0.3632023930283079
  0.2907521703531355  0.6560461954555433  0.3679080739587777
  0.2911729678394522  0.7812373702844801  0.3675617475283308
  0.2914207084410931  0.9062300441608209  0.3672008429011105
  0.2914282175764140  0.0311160157701934  0.3686097649392012
  0.2914827808331052  0.1559643239103700  0.3684767402695237
  0.2914547969674241  0.2809147586117778  0.3659165354569718
  0.1660872780109991  0.4682277104894846  0.3663685791365138
  0.1660811092251862  0.5934843960998902  0.3685708352437209
  0.1661539119896093  0.7187421027384393  0.3690055444717961
  0.1663809915574604  0.8436724825371668  0.3681040686780351
  0.1664534349742373  0.9686624773397048  0.3679143179985770
  0.1664924288885833  0.0935583372184084  0.3689393152699771
  0.1664205587175284  0.2184033250867131  0.3681736097345661
  0.1664906395944127  0.3433807683625590  0.3668873661063425
  0.0414215011159825  0.4058982755940739  0.3682941434897427
  0.0413586434006658  0.5309566932913125  0.3685407284269238
  0.0412665407826081  0.6561174690215094  0.3689041253389216
  0.0414446398484144  0.7812236343774881  0.3685339148297548
  0.0414920531030512  0.9062636745658903  0.3681338959978445
  0.0414983994763032  0.0310833151009486  0.3681510881601482
  0.0415239557118034  0.1560522319181677  0.3685352312958067
  0.0414574956213981  0.2808852143258518  0.3685946124090207
  0.8333188187884150  0.4682988952992889  0.3686777019761471
  0.8333061824924117  0.5933524863319251  0.3685413953868590
  0.8333297314872814  0.7188092992010585  0.3673888047920781
  0.8333047423771095  0.8437715944833636  0.3673513894519267
  0.8332138429100103  0.9687364443323604  0.3680998643611307
  0.8331785185314800  0.0936207994938156  0.3684110260074001
  0.8332232135878745  0.2185020481001552  0.3687219258404337
  0.8330649985189565  0.3435119203587829  0.3691557976337739
  0.7081129085201100  0.4055752521674408  0.3646891974693215
  0.7081022216785958  0.5300840038833886  0.3698628406990472
  0.7087558427645804  0.6567858539289112  0.3686153601706853
  0.7083630636832178  0.7813978948690553  0.3673347028667439
  0.7082072357134301  0.9063242298556101  0.3671195088527984
  0.7082600362864753  0.0311888627139670  0.3684351583392311
  0.7081954648831038  0.1560210339659172  0.3690012289346289
  0.7081230476704955  0.2808466351604828  0.3678427879010254
  0.5834075960945873  0.4677960029436282  0.3548649213058218
  0.5825707498408363  0.5924591069092028  0.3616610630496294
  0.5833528292569640  0.7191293432413229  0.3723296221568216
  0.5831329247430653  0.8439796360057905  0.3671474564590685
  0.5831637849787624  0.9688046026558115  0.3672713532151600
  0.5831883016070479  0.0936310374522634  0.3690242640991878
  0.5831478921888484  0.2184560421108450  0.3679219747235858
  0.5830487614341249  0.3432284702472024  0.3626424048136051
  0.4579178665734527  0.4055190939241925  0.3565132985866405
  0.4580778597387815  0.5302801247893153  0.3580481647275892
  0.4570340588899249  0.6566557801295295  0.3674556006411351
  0.4578485250753853  0.7815845237410434  0.3661904869132729
  0.4581201302008626  0.9063962204421342  0.3666154477749673
  0.4582218710052998  0.0312159953119028  0.3684013891914430
  0.4581645117859608  0.1560460771211976  0.3684499621298718
  0.4580932537362540  0.2808269565523826  0.3646610555119291
  0.3326853161667201  0.4681646276151289  0.3594654555763131
  0.3316609248488742  0.5932651016825522  0.3662992989637897
  0.3325026336657730  0.7187566572011459  0.3672220345072232
  0.3330460886025389  0.8437331611339476  0.3667657104199668
  0.3330840305864448  0.9687616618940532  0.3676440844080414
  0.3331250402771222  0.0935685951735106  0.3689495504414482
  0.3331981396394246  0.2184097672879604  0.3671007966179472
  0.3330468586199160  0.3432984936363788  0.3630608349022509
  0.2079907779138018  0.4057923539709042  0.3653640265290475
  0.2076690405948545  0.5308008187984611  0.3661377875992759
  0.2076366480649467  0.6561074669737785  0.3688501166418076
  0.2078761621808620  0.7811678229248761  0.3683961121208697
  0.2080923732630584  0.9062371596370192  0.3676423144434376
  0.2082344049924529  0.0311013452694926  0.3685785513907842
  0.2081536131423265  0.1559904144021800  0.3686669962672005
  0.2081160051933683  0.2808991132826303  0.3670279832303431
  0.0829752187598458  0.4683791370752091  0.3678350160474428
  0.0829242451241957  0.5934936016963952  0.3689338520504737
  0.0829556054108568  0.7186673718974712  0.3689301469738839
  0.0831211566035470  0.8437769352115631  0.3683282522475990
  0.0831044359143795  0.9686879424124683  0.3679300710388242
  0.0831601859365920  0.0936240417342843  0.3686297326261293
  0.0831827050968989  0.2184258903295334  0.3684766436992050
  0.0831273528876974  0.3433985532895105  0.3680599571792941
  0.9581758769213464  0.4058882427265000  0.3690186103818783
  0.9581382398723881  0.5309555006244229  0.3688484863113500
  0.9581891363650038  0.6560972256322817  0.3683927421621377
  0.9581165567823833  0.7812408781860154  0.3680285542080076
  0.9582364216448217  0.9063115310584837  0.3681912754096832
  0.9582299812485149  0.0311186101294487  0.3681276090278676
  0.9581941794643191  0.1561566360617629  0.3682940883525984
  0.9581748048752032  0.2809332296479646  0.3689890267514307
  0.3938824329449541  0.4629863435130807  0.5391625774495078
  0.6227942030805474  0.5542205424519417  0.6014028571713852
  0.4336815842901158  0.5728684409636851  0.4781377621603042
  0.6794194431417486  0.4505984376021687  0.5424570412928651
  0.5390195064065684  0.4813066138810222  0.5116306679927167
  0.5464317321643386  0.6642637106252866  0.6067772382490795
  0.5464673622916311  0.6653030251879642  0.4810422836921065
  0.6542645160337134  0.5650155547039197  0.4783666798887624
  0.4617581931015362  0.5591684814229436  0.6020318311902215

  0.00000000E+00  0.00000000E+00  0.00000000E+00
  0.00000000E+00  0.00000000E+00  0.00000000E+00
  0.00000000E+00  0.00000000E+00  0.00000000E+00
  0.00000000E+00  0.00000000E+00  0.00000000E+00
  0.00000000E+00  0.00000000E+00  0.00000000E+00
  0.00000000E+00  0.00000000E+00  0.00000000E+00
  0.00000000E+00  0.00000000E+00  0.00000000E+00
  0.00000000E+00  0.00000000E+00  0.00000000E+00
  0.00000000E+00  0.00000000E+00  0.00000000E+00
  0.00000000E+00  0.00000000E+00  0.00000000E+00
  0.00000000E+00  0.00000000E+00  0.00000000E+00
  0.00000000E+00  0.00000000E+00  0.00000000E+00
  0.00000000E+00  0.00000000E+00  0.00000000E+00
  0.00000000E+00  0.00000000E+00  0.00000000E+00
  0.00000000E+00  0.00000000E+00  0.00000000E+00
  0.00000000E+00  0.00000000E+00  0.00000000E+00
  0.00000000E+00  0.00000000E+00  0.00000000E+00
  0.00000000E+00  0.00000000E+00  0.00000000E+00
  0.00000000E+00  0.00000000E+00  0.00000000E+00
  0.00000000E+00  0.00000000E+00  0.00000000E+00
  0.00000000E+00  0.00000000E+00  0.00000000E+00
  0.00000000E+00  0.00000000E+00  0.00000000E+00
  0.00000000E+00  0.00000000E+00  0.00000000E+00
  0.00000000E+00  0.00000000E+00  0.00000000E+00
  0.00000000E+00  0.00000000E+00  0.00000000E+00
  0.00000000E+00  0.00000000E+00  0.00000000E+00
  0.00000000E+00  0.00000000E+00  0.00000000E+00
  0.00000000E+00  0.00000000E+00  0.00000000E+00
  0.00000000E+00  0.00000000E+00  0.00000000E+00
  0.00000000E+00  0.00000000E+00  0.00000000E+00
  0.00000000E+00  0.00000000E+00  0.00000000E+00
  0.00000000E+00  0.00000000E+00  0.00000000E+00
  0.00000000E+00  0.00000000E+00  0.00000000E+00
  0.00000000E+00  0.00000000E+00  0.00000000E+00
  0.00000000E+00  0.00000000E+00  0.00000000E+00
  0.00000000E+00  0.00000000E+00  0.00000000E+00
  0.00000000E+00  0.00000000E+00  0.00000000E+00
  0.00000000E+00  0.00000000E+00  0.00000000E+00
  0.00000000E+00  0.00000000E+00  0.00000000E+00
  0.00000000E+00  0.00000000E+00  0.00000000E+00
  0.00000000E+00  0.00000000E+00  0.00000000E+00
  0.00000000E+00  0.00000000E+00  0.00000000E+00
  0.00000000E+00  0.00000000E+00  0.00000000E+00
  0.00000000E+00  0.00000000E+00  0.00000000E+00
  0.00000000E+00  0.00000000E+00  0.00000000E+00
  0.00000000E+00  0.00000000E+00  0.00000000E+00
  0.00000000E+00  0.00000000E+00  0.00000000E+00
  0.00000000E+00  0.00000000E+00  0.00000000E+00
  0.00000000E+00  0.00000000E+00  0.00000000E+00
  0.00000000E+00  0.00000000E+00  0.00000000E+00
  0.00000000E+00  0.00000000E+00  0.00000000E+00
  0.00000000E+00  0.00000000E+00  0.00000000E+00
  0.00000000E+00  0.00000000E+00  0.00000000E+00
  0.00000000E+00  0.00000000E+00  0.00000000E+00
  0.00000000E+00  0.00000000E+00  0.00000000E+00
  0.00000000E+00  0.00000000E+00  0.00000000E+00
  0.00000000E+00  0.00000000E+00  0.00000000E+00
  0.00000000E+00  0.00000000E+00  0.00000000E+00
  0.00000000E+00  0.00000000E+00  0.00000000E+00
  0.00000000E+00  0.00000000E+00  0.00000000E+00
  0.00000000E+00  0.00000000E+00  0.00000000E+00
  0.00000000E+00  0.00000000E+00  0.00000000E+00
  0.00000000E+00  0.00000000E+00  0.00000000E+00
  0.00000000E+00  0.00000000E+00  0.00000000E+00
  0.00000000E+00  0.00000000E+00  0.00000000E+00
  0.00000000E+00  0.00000000E+00  0.00000000E+00
  0.00000000E+00  0.00000000E+00  0.00000000E+00
  0.00000000E+00  0.00000000E+00  0.00000000E+00
  0.00000000E+00  0.00000000E+00  0.00000000E+00
  0.00000000E+00  0.00000000E+00  0.00000000E+00
  0.00000000E+00  0.00000000E+00  0.00000000E+00
  0.00000000E+00  0.00000000E+00  0.00000000E+00
  0.00000000E+00  0.00000000E+00  0.00000000E+00
  0.00000000E+00  0.00000000E+00  0.00000000E+00
  0.00000000E+00  0.00000000E+00  0.00000000E+00
  0.00000000E+00  0.00000000E+00  0.00000000E+00
  0.00000000E+00  0.00000000E+00  0.00000000E+00
  0.00000000E+00  0.00000000E+00  0.00000000E+00
  0.00000000E+00  0.00000000E+00  0.00000000E+00
  0.00000000E+00  0.00000000E+00  0.00000000E+00
  0.00000000E+00  0.00000000E+00  0.00000000E+00
  0.00000000E+00  0.00000000E+00  0.00000000E+00
  0.00000000E+00  0.00000000E+00  0.00000000E+00
  0.00000000E+00  0.00000000E+00  0.00000000E+00
  0.00000000E+00  0.00000000E+00  0.00000000E+00
  0.00000000E+00  0.00000000E+00  0.00000000E+00
  0.00000000E+00  0.00000000E+00  0.00000000E+00
  0.00000000E+00  0.00000000E+00  0.00000000E+00
  0.00000000E+00  0.00000000E+00  0.00000000E+00
  0.00000000E+00  0.00000000E+00  0.00000000E+00
  0.00000000E+00  0.00000000E+00  0.00000000E+00
  0.00000000E+00  0.00000000E+00  0.00000000E+00
  0.00000000E+00  0.00000000E+00  0.00000000E+00
  0.00000000E+00  0.00000000E+00  0.00000000E+00
  0.00000000E+00  0.00000000E+00  0.00000000E+00
  0.00000000E+00  0.00000000E+00  0.00000000E+00
  0.00000000E+00  0.00000000E+00  0.00000000E+00
  0.00000000E+00  0.00000000E+00  0.00000000E+00
  0.00000000E+00  0.00000000E+00  0.00000000E+00
  0.00000000E+00  0.00000000E+00  0.00000000E+00
  0.00000000E+00  0.00000000E+00  0.00000000E+00
  0.00000000E+00  0.00000000E+00  0.00000000E+00
  0.00000000E+00  0.00000000E+00  0.00000000E+00
  0.00000000E+00  0.00000000E+00  0.00000000E+00
  0.00000000E+00  0.00000000E+00  0.00000000E+00
  0.00000000E+00  0.00000000E+00  0.00000000E+00
  0.00000000E+00  0.00000000E+00  0.00000000E+00
  0.00000000E+00  0.00000000E+00  0.00000000E+00
  0.00000000E+00  0.00000000E+00  0.00000000E+00
  0.00000000E+00  0.00000000E+00  0.00000000E+00
  0.00000000E+00  0.00000000E+00  0.00000000E+00
  0.00000000E+00  0.00000000E+00  0.00000000E+00
  0.00000000E+00  0.00000000E+00  0.00000000E+00
  0.00000000E+00  0.00000000E+00  0.00000000E+00
  0.00000000E+00  0.00000000E+00  0.00000000E+00
  0.00000000E+00  0.00000000E+00  0.00000000E+00
  0.00000000E+00  0.00000000E+00  0.00000000E+00
  0.00000000E+00  0.00000000E+00  0.00000000E+00
  0.00000000E+00  0.00000000E+00  0.00000000E+00
  0.00000000E+00  0.00000000E+00  0.00000000E+00
  0.00000000E+00  0.00000000E+00  0.00000000E+00
  0.00000000E+00  0.00000000E+00  0.00000000E+00
  0.00000000E+00  0.00000000E+00  0.00000000E+00
  0.00000000E+00  0.00000000E+00  0.00000000E+00
  0.00000000E+00  0.00000000E+00  0.00000000E+00
  0.00000000E+00  0.00000000E+00  0.00000000E+00
  0.00000000E+00  0.00000000E+00  0.00000000E+00
  0.00000000E+00  0.00000000E+00  0.00000000E+00
  0.00000000E+00  0.00000000E+00  0.00000000E+00
  0.00000000E+00  0.00000000E+00  0.00000000E+00
  0.00000000E+00  0.00000000E+00  0.00000000E+00
  0.00000000E+00  0.00000000E+00  0.00000000E+00
  0.00000000E+00  0.00000000E+00  0.00000000E+00
  0.00000000E+00  0.00000000E+00  0.00000000E+00
  0.00000000E+00  0.00000000E+00  0.00000000E+00
  0.00000000E+00  0.00000000E+00  0.00000000E+00
  0.00000000E+00  0.00000000E+00  0.00000000E+00
