 C Pt                                   
   1.0000000000000000     
    17.0979999999999990    0.0000000000000000    0.0000000000000000
     0.0000000000000000   19.7420000000000009    0.0000000000000000
     0.0000000000000000    0.0000000000000000   20.0000000000000000
   C    Pt
   128     9
Direct
  0.8541331526029524  0.5936911867064132  0.3844808389146588
  0.8540797231114602  0.7187739707349153  0.3838160852857532
  0.8539197800115891  0.8437395025933371  0.3846406563011523
  0.8539924371806560  0.9686205242597122  0.3850916058198813
  0.8539864949168198  0.0936437381187622  0.3850230989393066
  0.8538448343122969  0.2186253163225671  0.3848805927027580
  0.8538794012413822  0.3435276450060030  0.3851369629747766
  0.8541469440657625  0.4686501992241279  0.3854082948922498
  0.7301001979779745  0.5313090379220962  0.3876193450922556
  0.7289787569058039  0.6563877751146493  0.3829611227745131
  0.7291471582893239  0.7814116575720772  0.3828784179212188
  0.7290561161238910  0.9061622922195763  0.3846238204749334
  0.7289418454140150  0.0311243043462549  0.3853069091089457
  0.7288701428634899  0.1561736384487168  0.3849514896182919
  0.7288510014443657  0.2811221952603733  0.3848566972540219
  0.7290398461475011  0.4060490783507379  0.3863444316212468
  0.6029957811856387  0.5943739688609013  0.3875009866016809
  0.6044471044645360  0.7189058548681497  0.3810651067620828
  0.6040623623880996  0.8439320422628829  0.3836834559595770
  0.6039613869017069  0.9686543390048578  0.3854170646208538
  0.6039005001896288  0.0935780936914070  0.3855018647566142
  0.6038062140452798  0.2185385064565411  0.3851004029791656
  0.6038142786670038  0.3433080287847131  0.3858339799808379
  0.6042966591046995  0.4679884322721309  0.3881576688842148
  0.4780966162302472  0.5316771487370019  0.3744517902149194
  0.4784217502682155  0.6562207475869137  0.3759570048339277
  0.4787942374574061  0.7812918403615224  0.3850994262722662
  0.4789078787624428  0.9062668075418100  0.3853254665301943
  0.4789073830916568  0.0311753438080990  0.3857662877612126
  0.4788583026152802  0.1560134482960077  0.3853480234756240
  0.4787325751568999  0.2807977960679311  0.3853196103073415
  0.4778826585212719  0.4058374984104886  0.3874567126533587
  0.3538035949330010  0.5935900992592213  0.3792340567008303
  0.3536161925768790  0.7187116923510152  0.3809026415261977
  0.3536451182898017  0.8437758794074586  0.3845769219239529
  0.3539148784206395  0.9685121426674034  0.3857471394344903
  0.3539233867497465  0.0935804002782353  0.3857124233640147
  0.3538110105365393  0.2185822427228325  0.3846822517045704
  0.3532785321775478  0.3432185859713187  0.3812139160569472
  0.3531528248390219  0.4681085338997728  0.3740558040117384
  0.2281291030478340  0.5305967764102144  0.3808370727467064
  0.2283702677094794  0.6563940773407693  0.3840657856860016
  0.2287362990567499  0.7812130684654127  0.3847015260701537
  0.2288901237131410  0.9060887402317064  0.3854911266208258
  0.2288546359689330  0.0310400774079898  0.3855238494362521
  0.2288466219788122  0.1560080212852183  0.3851992579227997
  0.2286340306500450  0.2809016351230095  0.3834362465190628
  0.2284800261155401  0.4057196700871674  0.3800994207142106
  0.1037519289550766  0.5935504997902815  0.3850101056711054
  0.1038751655367059  0.7186944609832150  0.3855108573990477
  0.1038486400298791  0.8436571310028607  0.3857791612435373
  0.1039453442638076  0.9685796544196951  0.3853393824543076
  0.1038294023542414  0.0935442208517888  0.3851904829589798
  0.1038433611355081  0.2185072059093980  0.3851502985861653
  0.1037029893429040  0.3433680547336818  0.3844787581000986
  0.1036468260480493  0.4684383109895219  0.3837304981077248
  0.9789273154796059  0.5311368750045650  0.3853291101338662
  0.9789053003029373  0.6561173910857763  0.3852368642897016
  0.9789114357242201  0.7812141843404640  0.3853109781103263
  0.9789651143864146  0.9061098605983109  0.3853064801440008
  0.9789353454943642  0.0311856384349151  0.3850218778004924
  0.9788606143376323  0.1559579745874081  0.3851538597984990
  0.9787933539879849  0.2810670495682162  0.3852300502654880
  0.9788826875554870  0.4059845692737759  0.3852255826328422
  0.7710371713599425  0.5937027392932906  0.3847196035678839
  0.7706940066748819  0.7188345660020484  0.3828290176191856
  0.7707693104757378  0.8438906328760279  0.3840967892084509
  0.7705658021568154  0.9685805335894662  0.3851067001102350
  0.7706138666433120  0.0936705418904140  0.3851145009972138
  0.7704955043401857  0.2187268977426986  0.3847719736535170
  0.7705731954829323  0.3435658197152603  0.3852719401364775
  0.7709125279618506  0.4687094431999664  0.3864781790886771
  0.6460292557623467  0.5311598786917310  0.3912575571507042
  0.6460384391760022  0.6570011831321092  0.3825927885955990
  0.6458170617062375  0.7813840905401407  0.3820795687746211
  0.6457266432771261  0.9062866945636709  0.3846024951494522
  0.6455837497065651  0.0311432600639773  0.3855182804610705
  0.6455032531806218  0.1560665651232581  0.3851808129416692
  0.6455502826674787  0.2809966561205985  0.3849513989322210
  0.6458040420883386  0.4057820010179248  0.3868218767279116
  0.5192704272658603  0.5939828636185486  0.3763317563254222
  0.5206240356718923  0.7184963220231948  0.3827024306263209
  0.5207636372572905  0.8440243792270417  0.3848557358999944
  0.5206242015888074  0.9686916414292243  0.3855486201754904
  0.5205857143274174  0.0936245711687071  0.3856191795086796
  0.5205305685610586  0.2184143423341693  0.3852174297991168
  0.5205754610262830  0.3429877991377992  0.3867666900790216
  0.5199330055010956  0.4691272163141982  0.3855125289937675
  0.3951581382026579  0.5306618974309448  0.3731243722126715
  0.3954330657307033  0.6566714861262135  0.3771389966255588
  0.3950356463565191  0.7812502293984946  0.3834443986947524
  0.3955393312271316  0.9061668662921554  0.3853801020158293
  0.3956074241230919  0.0310647359940944  0.3858220265720871
  0.3955737672877246  0.1560633163964095  0.3854369717867804
  0.3953102469617437  0.2809507636526796  0.3839768091399135
  0.3942858668963531  0.4058310731641879  0.3796652752925995
  0.2699067460316024  0.5934909223385787  0.3834027385947898
  0.2702288047412503  0.7187039971480701  0.3830767948683406
  0.2704164351515378  0.8437002641445831  0.3848851669723377
  0.2705549374559372  0.9685254212901585  0.3856082820193961
  0.2705448869461783  0.0935354957973458  0.3855536926638516
  0.2704566631261649  0.2185511766166987  0.3845115361753995
  0.2700623964407943  0.3432295597797682  0.3809802326485667
  0.2699294805141318  0.4681774220578351  0.3771547469253285
  0.1452397190552793  0.5309430864657187  0.3833515570961144
  0.1453883050696717  0.6561074537026337  0.3850474188087483
  0.1454737619536305  0.7812035864905880  0.3855838379579992
  0.1455841902141530  0.9060718692642357  0.3855999174978227
  0.1455296818859609  0.0311215563955629  0.3852739508355017
  0.1454544208618835  0.1559837475773166  0.3851997219898091
  0.1453731579827112  0.2809790300105524  0.3844523370469327
  0.1452738904440915  0.4058757346557043  0.3829344216913883
  0.0206612794414168  0.5935730332928421  0.3854610557045292
  0.0205489392782164  0.7186668073610318  0.3854592553347334
  0.0206406148004259  0.8436464287297101  0.3855615709968420
  0.0205415234653419  0.9686563423041626  0.3852123202512812
  0.0205478598734115  0.0935774883387634  0.3850852009736002
  0.0204293313695145  0.2185486275663518  0.3852370474923992
  0.0204620804100802  0.3434629458156409  0.3852329076754375
  0.0204476659318553  0.4685520561475401  0.3850559851280944
  0.8957238747940645  0.5311533456096215  0.3852022973719928
  0.8956850425406190  0.6561998113816185  0.3843415714013792
  0.8955794243089191  0.7812811957836008  0.3845915696134202
  0.8955897668521329  0.9061008518190903  0.3850967448379895
  0.8956347010681269  0.0312111858915517  0.3850463726231020
  0.8954814901361644  0.1561097743200302  0.3850032773991963
  0.8954567567047399  0.2811126050268867  0.3850294653285135
  0.8956127595089848  0.4060033234726422  0.3852467735546380
  0.3415758653625293  0.5681422966004798  0.4968049236361312
  0.4066742006590330  0.5037005273728646  0.5906428518486786
  0.4964134689455856  0.4579263696233956  0.4918560361655126
  0.5220223092243886  0.4230660672111398  0.6130646165442791
  0.6011005508607686  0.5583782763665653  0.4940224954585203
  0.4554736811115265  0.6218904931730214  0.5511764394311695
  0.5639840514205701  0.5450564949719789  0.6149244270911639
  0.4960663745257387  0.7370658555064503  0.5159735263264603
  0.5999155115791706  0.6632164779960853  0.5706478057312597

  0.00000000E+00  0.00000000E+00  0.00000000E+00
  0.00000000E+00  0.00000000E+00  0.00000000E+00
  0.00000000E+00  0.00000000E+00  0.00000000E+00
  0.00000000E+00  0.00000000E+00  0.00000000E+00
  0.00000000E+00  0.00000000E+00  0.00000000E+00
  0.00000000E+00  0.00000000E+00  0.00000000E+00
  0.00000000E+00  0.00000000E+00  0.00000000E+00
  0.00000000E+00  0.00000000E+00  0.00000000E+00
  0.00000000E+00  0.00000000E+00  0.00000000E+00
  0.00000000E+00  0.00000000E+00  0.00000000E+00
  0.00000000E+00  0.00000000E+00  0.00000000E+00
  0.00000000E+00  0.00000000E+00  0.00000000E+00
  0.00000000E+00  0.00000000E+00  0.00000000E+00
  0.00000000E+00  0.00000000E+00  0.00000000E+00
  0.00000000E+00  0.00000000E+00  0.00000000E+00
  0.00000000E+00  0.00000000E+00  0.00000000E+00
  0.00000000E+00  0.00000000E+00  0.00000000E+00
  0.00000000E+00  0.00000000E+00  0.00000000E+00
  0.00000000E+00  0.00000000E+00  0.00000000E+00
  0.00000000E+00  0.00000000E+00  0.00000000E+00
  0.00000000E+00  0.00000000E+00  0.00000000E+00
  0.00000000E+00  0.00000000E+00  0.00000000E+00
  0.00000000E+00  0.00000000E+00  0.00000000E+00
  0.00000000E+00  0.00000000E+00  0.00000000E+00
  0.00000000E+00  0.00000000E+00  0.00000000E+00
  0.00000000E+00  0.00000000E+00  0.00000000E+00
  0.00000000E+00  0.00000000E+00  0.00000000E+00
  0.00000000E+00  0.00000000E+00  0.00000000E+00
  0.00000000E+00  0.00000000E+00  0.00000000E+00
  0.00000000E+00  0.00000000E+00  0.00000000E+00
  0.00000000E+00  0.00000000E+00  0.00000000E+00
  0.00000000E+00  0.00000000E+00  0.00000000E+00
  0.00000000E+00  0.00000000E+00  0.00000000E+00
  0.00000000E+00  0.00000000E+00  0.00000000E+00
  0.00000000E+00  0.00000000E+00  0.00000000E+00
  0.00000000E+00  0.00000000E+00  0.00000000E+00
  0.00000000E+00  0.00000000E+00  0.00000000E+00
  0.00000000E+00  0.00000000E+00  0.00000000E+00
  0.00000000E+00  0.00000000E+00  0.00000000E+00
  0.00000000E+00  0.00000000E+00  0.00000000E+00
  0.00000000E+00  0.00000000E+00  0.00000000E+00
  0.00000000E+00  0.00000000E+00  0.00000000E+00
  0.00000000E+00  0.00000000E+00  0.00000000E+00
  0.00000000E+00  0.00000000E+00  0.00000000E+00
  0.00000000E+00  0.00000000E+00  0.00000000E+00
  0.00000000E+00  0.00000000E+00  0.00000000E+00
  0.00000000E+00  0.00000000E+00  0.00000000E+00
  0.00000000E+00  0.00000000E+00  0.00000000E+00
  0.00000000E+00  0.00000000E+00  0.00000000E+00
  0.00000000E+00  0.00000000E+00  0.00000000E+00
  0.00000000E+00  0.00000000E+00  0.00000000E+00
  0.00000000E+00  0.00000000E+00  0.00000000E+00
  0.00000000E+00  0.00000000E+00  0.00000000E+00
  0.00000000E+00  0.00000000E+00  0.00000000E+00
  0.00000000E+00  0.00000000E+00  0.00000000E+00
  0.00000000E+00  0.00000000E+00  0.00000000E+00
  0.00000000E+00  0.00000000E+00  0.00000000E+00
  0.00000000E+00  0.00000000E+00  0.00000000E+00
  0.00000000E+00  0.00000000E+00  0.00000000E+00
  0.00000000E+00  0.00000000E+00  0.00000000E+00
  0.00000000E+00  0.00000000E+00  0.00000000E+00
  0.00000000E+00  0.00000000E+00  0.00000000E+00
  0.00000000E+00  0.00000000E+00  0.00000000E+00
  0.00000000E+00  0.00000000E+00  0.00000000E+00
  0.00000000E+00  0.00000000E+00  0.00000000E+00
  0.00000000E+00  0.00000000E+00  0.00000000E+00
  0.00000000E+00  0.00000000E+00  0.00000000E+00
  0.00000000E+00  0.00000000E+00  0.00000000E+00
  0.00000000E+00  0.00000000E+00  0.00000000E+00
  0.00000000E+00  0.00000000E+00  0.00000000E+00
  0.00000000E+00  0.00000000E+00  0.00000000E+00
  0.00000000E+00  0.00000000E+00  0.00000000E+00
  0.00000000E+00  0.00000000E+00  0.00000000E+00
  0.00000000E+00  0.00000000E+00  0.00000000E+00
  0.00000000E+00  0.00000000E+00  0.00000000E+00
  0.00000000E+00  0.00000000E+00  0.00000000E+00
  0.00000000E+00  0.00000000E+00  0.00000000E+00
  0.00000000E+00  0.00000000E+00  0.00000000E+00
  0.00000000E+00  0.00000000E+00  0.00000000E+00
  0.00000000E+00  0.00000000E+00  0.00000000E+00
  0.00000000E+00  0.00000000E+00  0.00000000E+00
  0.00000000E+00  0.00000000E+00  0.00000000E+00
  0.00000000E+00  0.00000000E+00  0.00000000E+00
  0.00000000E+00  0.00000000E+00  0.00000000E+00
  0.00000000E+00  0.00000000E+00  0.00000000E+00
  0.00000000E+00  0.00000000E+00  0.00000000E+00
  0.00000000E+00  0.00000000E+00  0.00000000E+00
  0.00000000E+00  0.00000000E+00  0.00000000E+00
  0.00000000E+00  0.00000000E+00  0.00000000E+00
  0.00000000E+00  0.00000000E+00  0.00000000E+00
  0.00000000E+00  0.00000000E+00  0.00000000E+00
  0.00000000E+00  0.00000000E+00  0.00000000E+00
  0.00000000E+00  0.00000000E+00  0.00000000E+00
  0.00000000E+00  0.00000000E+00  0.00000000E+00
  0.00000000E+00  0.00000000E+00  0.00000000E+00
  0.00000000E+00  0.00000000E+00  0.00000000E+00
  0.00000000E+00  0.00000000E+00  0.00000000E+00
  0.00000000E+00  0.00000000E+00  0.00000000E+00
  0.00000000E+00  0.00000000E+00  0.00000000E+00
  0.00000000E+00  0.00000000E+00  0.00000000E+00
  0.00000000E+00  0.00000000E+00  0.00000000E+00
  0.00000000E+00  0.00000000E+00  0.00000000E+00
  0.00000000E+00  0.00000000E+00  0.00000000E+00
  0.00000000E+00  0.00000000E+00  0.00000000E+00
  0.00000000E+00  0.00000000E+00  0.00000000E+00
  0.00000000E+00  0.00000000E+00  0.00000000E+00
  0.00000000E+00  0.00000000E+00  0.00000000E+00
  0.00000000E+00  0.00000000E+00  0.00000000E+00
  0.00000000E+00  0.00000000E+00  0.00000000E+00
  0.00000000E+00  0.00000000E+00  0.00000000E+00
  0.00000000E+00  0.00000000E+00  0.00000000E+00
  0.00000000E+00  0.00000000E+00  0.00000000E+00
  0.00000000E+00  0.00000000E+00  0.00000000E+00
  0.00000000E+00  0.00000000E+00  0.00000000E+00
  0.00000000E+00  0.00000000E+00  0.00000000E+00
  0.00000000E+00  0.00000000E+00  0.00000000E+00
  0.00000000E+00  0.00000000E+00  0.00000000E+00
  0.00000000E+00  0.00000000E+00  0.00000000E+00
  0.00000000E+00  0.00000000E+00  0.00000000E+00
  0.00000000E+00  0.00000000E+00  0.00000000E+00
  0.00000000E+00  0.00000000E+00  0.00000000E+00
  0.00000000E+00  0.00000000E+00  0.00000000E+00
  0.00000000E+00  0.00000000E+00  0.00000000E+00
  0.00000000E+00  0.00000000E+00  0.00000000E+00
  0.00000000E+00  0.00000000E+00  0.00000000E+00
  0.00000000E+00  0.00000000E+00  0.00000000E+00
  0.00000000E+00  0.00000000E+00  0.00000000E+00
  0.00000000E+00  0.00000000E+00  0.00000000E+00
  0.00000000E+00  0.00000000E+00  0.00000000E+00
  0.00000000E+00  0.00000000E+00  0.00000000E+00
  0.00000000E+00  0.00000000E+00  0.00000000E+00
  0.00000000E+00  0.00000000E+00  0.00000000E+00
  0.00000000E+00  0.00000000E+00  0.00000000E+00
  0.00000000E+00  0.00000000E+00  0.00000000E+00
  0.00000000E+00  0.00000000E+00  0.00000000E+00
  0.00000000E+00  0.00000000E+00  0.00000000E+00
  0.00000000E+00  0.00000000E+00  0.00000000E+00
