 C Pt                                   
   1.0000000000000000     
    17.0979999999999990    0.0000000000000000    0.0000000000000000
     0.0000000000000000   19.7420000000000009    0.0000000000000000
     0.0000000000000000    0.0000000000000000   20.0000000000000000
   C    Pt
   128     8
Direct
  0.7918416786869510  0.7191001071219741  0.3807335009467294
  0.7916064715742924  0.8440957374918585  0.3809129816080160
  0.7915850800496638  0.9690318412988951  0.3806443999923648
  0.7915753691806103  0.0939768902863571  0.3806775305600030
  0.7916951956365770  0.2188948090428079  0.3808152499715367
  0.7917075828771840  0.3438523991058824  0.3804550753481627
  0.7918085670406937  0.4689177132894183  0.3796849555506933
  0.7917528467680012  0.5939839343289377  0.3797612844371501
  0.6673130725268268  0.6567377927829483  0.3803724830126810
  0.6666032630233334  0.7817064869824829  0.3810979021009815
  0.6665830379485465  0.9066686722679341  0.3807245763921970
  0.6666331622512085  0.0315132058445883  0.3808035456235373
  0.6665845213724452  0.1564283301857214  0.3809014383965874
  0.6666729808610209  0.2813635448462970  0.3803906890440799
  0.6668676104303627  0.4062540974618894  0.3788061958653187
  0.6669281359439747  0.5313055903051577  0.3783720730243619
  0.5414389163879244  0.7196554960694159  0.3790228667937047
  0.5415363201222398  0.8442950275654660  0.3795077644824425
  0.5415677059197079  0.9691834556669316  0.3805769171700198
  0.5415927836082925  0.0940645170164255  0.3811193451111531
  0.5417222617821420  0.2189021796369827  0.3806510281433472
  0.5416855623198299  0.3437410823381054  0.3786670178802259
  0.5419388841773540  0.4683257784015840  0.3770636364022451
  0.5419305457773763  0.5941529117061192  0.3810980355060269
  0.4161853669191621  0.6575658645077015  0.3730752000376523
  0.4164414830884327  0.7818724065707803  0.3758151744656351
  0.4165189114471508  0.9068237440542566  0.3793270969001932
  0.4165423027581096  0.0316427553710880  0.3809706059720441
  0.4165978537277147  0.1564999590319772  0.3809235646209638
  0.4166522927967156  0.2814514316553307  0.3797572728799419
  0.4169766748924187  0.4063352179120187  0.3785212789292562
  0.4169412381924931  0.5313138139518769  0.3808274797489845
  0.2911426420772502  0.7195241835603552  0.3742468428295558
  0.2914489231879335  0.8443283487481027  0.3777117026082327
  0.2914991326813618  0.9691860405997816  0.3803448101311971
  0.2916094663047329  0.0941223802812499  0.3810448034449301
  0.2917239808942528  0.2190836932799583  0.3804638306686167
  0.2916032673305113  0.3440530899431461  0.3797972191268777
  0.2911478849946658  0.4686002687014778  0.3813786583677319
  0.2908149180708405  0.5948419223764920  0.3775262026653700
  0.1661848925967606  0.6568238731207691  0.3775339346742866
  0.1662939610432650  0.7817510326652481  0.3782241700520416
  0.1665275350656504  0.9066540917212692  0.3799665579638391
  0.1666321556034158  0.0315918533799660  0.3809082332587994
  0.1666390780189465  0.1565711515508142  0.3809566876478733
  0.1665918003481712  0.2815244785305018  0.3805065336828951
  0.1664904520851671  0.4064273888918148  0.3804857150363974
  0.1663325946151369  0.5315886633640851  0.3799581376890389
  0.0414529409547835  0.7191288339998860  0.3797685431782581
  0.0415012219668915  0.8441826082888991  0.3803841409253508
  0.0415479480761679  0.9690561771668199  0.3807419539172622
  0.0415993096232084  0.0940832495517791  0.3809713172800817
  0.0416497434842863  0.2189973064368629  0.3808058835573327
  0.0415386898980786  0.3440083793010380  0.3806334767696752
  0.0415200946339432  0.4689896502088675  0.3806484044788091
  0.0415398729956904  0.5941068792688992  0.3799393000798283
  0.9166862537281949  0.6565746796633805  0.3806170680538419
  0.9166704660967773  0.7815813889856237  0.3807845582562181
  0.9165520286979100  0.9065697038630702  0.3807451477713810
  0.9166126192298423  0.0315369351023827  0.3806805857226783
  0.9165763661501020  0.1564999862756400  0.3806932044560827
  0.9166088837217783  0.2814693469892877  0.3808686948750530
  0.9166899353785064  0.4064321492616517  0.3808790930793801
  0.9166374768845332  0.5314921457928991  0.3804333993280699
  0.7085112243189182  0.7191639856683960  0.3808530130288588
  0.7082782950811296  0.8441059717678923  0.3809368595457645
  0.7082980259563743  0.9690888603869184  0.3807124249797622
  0.7082733804076320  0.0939926501282617  0.3807773651463034
  0.7083051448716410  0.2189159345553746  0.3808116882158640
  0.7084577976287416  0.3438324519424939  0.3799664026242037
  0.7084412259249863  0.4688051742956568  0.3787366856588103
  0.7084865946480936  0.5941269146928417  0.3791949060924871
  0.5838073242043464  0.6573445108791685  0.3818457591407727
  0.5832805505010886  0.7818986914162525  0.3801394059298224
  0.5832710220028513  0.9066955839825275  0.3802995403568884
  0.5832993237205280  0.0316320788230670  0.3809566698447333
  0.5833503354737045  0.1565014849649043  0.3809969805676141
  0.5834680995748184  0.2812766704703689  0.3800226881836203
  0.5835616998593187  0.4061105949970077  0.3778261161475318
  0.5838413637957449  0.5308172021584918  0.3788808296161729
  0.4581257033790335  0.7196069856088755  0.3750650549583491
  0.4582445598503703  0.8443427014393072  0.3783146173919338
  0.4582651890011344  0.9692632139868652  0.3804228106124241
  0.4582958287730090  0.0940690576015240  0.3811273754696494
  0.4583087959089792  0.2189724771167112  0.3805712735339797
  0.4584692431135947  0.3439058873299605  0.3787506027058035
  0.4590190725743897  0.4679515024554342  0.3776235837970964
  0.4577772986690561  0.5951738178989704  0.3770001756742735
  0.3325896232053516  0.6572421604778255  0.3731987175614753
  0.3330980320554645  0.7819959140347235  0.3754047263088177
  0.3331756135472773  0.9067477899131691  0.3791690489610954
  0.3332818227388980  0.0316366412835018  0.3809364364295490
  0.3333441607065312  0.1566119442813714  0.3808283147141556
  0.3333669511810727  0.2814475097606180  0.3799582452904706
  0.3331459107242217  0.4065446930589344  0.3796668632386206
  0.3326056671667402  0.5318368749946623  0.3830177883139530
  0.2078165561705452  0.7192927402963274  0.3765210421941550
  0.2081897178452622  0.8442049837303163  0.3785742829558333
  0.2082381690490701  0.9691509917228546  0.3804841686492932
  0.2082971672621425  0.0940734247173854  0.3810170251232332
  0.2083198710001192  0.2190246174996677  0.3806198091135153
  0.2082621409753304  0.3440167744208419  0.3803681683426140
  0.2080527377668480  0.4689585079127546  0.3806661474812624
  0.2077294019134532  0.5942706502059210  0.3780970297181366
  0.0830387811856371  0.6566621528277767  0.3791263812615116
  0.0831151254591158  0.7816737333845429  0.3796177920154917
  0.0831563573689263  0.9065813732498946  0.3804502899102726
  0.0832938105708919  0.0315619786749451  0.3808828977802833
  0.0833284706055054  0.1565549696903752  0.3809567732660496
  0.0833144193402412  0.2814921688106361  0.3806617053899844
  0.0830896661379741  0.4064518572117351  0.3806279893458781
  0.0831259121913220  0.5315312517743449  0.3802294113847225
  0.9582097754152084  0.7190917776921603  0.3805723590178897
  0.9583100360357630  0.8441027392042694  0.3807055245987499
  0.9582575762180920  0.9690629498944435  0.3807269196657274
  0.9582669661509677  0.0939830136219197  0.3808228125764019
  0.9582958905246424  0.2189426548673923  0.3807408480423918
  0.9582529433541950  0.3439647405081976  0.3808141757465286
  0.9583012010248695  0.4689450531490497  0.3807254035708498
  0.9583057851569924  0.5940259153873494  0.3804010303844575
  0.8333963905875519  0.6565611095438655  0.3804607917251469
  0.8333867596933017  0.7816482070601626  0.3808864147947048
  0.8332807751743434  0.9065311611866644  0.3807368544116725
  0.8333145932162794  0.0314589514548302  0.3806357355484736
  0.8332876376342111  0.1564460038969682  0.3807015373298465
  0.8333486308343889  0.2813617557075132  0.3808468794249301
  0.8333449549807772  0.4063952183140274  0.3804304182920275
  0.8333890955482742  0.5313977485379416  0.3798910248082948
  0.5405337263874687  0.5979441869838141  0.4912838246703552
  0.5155976135726342  0.6155937812040756  0.6143586657296525
  0.5247970135786163  0.3774673051082801  0.5916100593275216
  0.3896475182683036  0.5569080568568638  0.4860397961577500
  0.3726391992912995  0.5824816306259027  0.6077788670031121
  0.4198511841027729  0.4632456591197713  0.5742930208086906
  0.6569434517684304  0.5979449412296964  0.5708304845079033
  0.5575731385233735  0.4987763793100014  0.5759114228885772

  0.00000000E+00  0.00000000E+00  0.00000000E+00
  0.00000000E+00  0.00000000E+00  0.00000000E+00
  0.00000000E+00  0.00000000E+00  0.00000000E+00
  0.00000000E+00  0.00000000E+00  0.00000000E+00
  0.00000000E+00  0.00000000E+00  0.00000000E+00
  0.00000000E+00  0.00000000E+00  0.00000000E+00
  0.00000000E+00  0.00000000E+00  0.00000000E+00
  0.00000000E+00  0.00000000E+00  0.00000000E+00
  0.00000000E+00  0.00000000E+00  0.00000000E+00
  0.00000000E+00  0.00000000E+00  0.00000000E+00
  0.00000000E+00  0.00000000E+00  0.00000000E+00
  0.00000000E+00  0.00000000E+00  0.00000000E+00
  0.00000000E+00  0.00000000E+00  0.00000000E+00
  0.00000000E+00  0.00000000E+00  0.00000000E+00
  0.00000000E+00  0.00000000E+00  0.00000000E+00
  0.00000000E+00  0.00000000E+00  0.00000000E+00
  0.00000000E+00  0.00000000E+00  0.00000000E+00
  0.00000000E+00  0.00000000E+00  0.00000000E+00
  0.00000000E+00  0.00000000E+00  0.00000000E+00
  0.00000000E+00  0.00000000E+00  0.00000000E+00
  0.00000000E+00  0.00000000E+00  0.00000000E+00
  0.00000000E+00  0.00000000E+00  0.00000000E+00
  0.00000000E+00  0.00000000E+00  0.00000000E+00
  0.00000000E+00  0.00000000E+00  0.00000000E+00
  0.00000000E+00  0.00000000E+00  0.00000000E+00
  0.00000000E+00  0.00000000E+00  0.00000000E+00
  0.00000000E+00  0.00000000E+00  0.00000000E+00
  0.00000000E+00  0.00000000E+00  0.00000000E+00
  0.00000000E+00  0.00000000E+00  0.00000000E+00
  0.00000000E+00  0.00000000E+00  0.00000000E+00
  0.00000000E+00  0.00000000E+00  0.00000000E+00
  0.00000000E+00  0.00000000E+00  0.00000000E+00
  0.00000000E+00  0.00000000E+00  0.00000000E+00
  0.00000000E+00  0.00000000E+00  0.00000000E+00
  0.00000000E+00  0.00000000E+00  0.00000000E+00
  0.00000000E+00  0.00000000E+00  0.00000000E+00
  0.00000000E+00  0.00000000E+00  0.00000000E+00
  0.00000000E+00  0.00000000E+00  0.00000000E+00
  0.00000000E+00  0.00000000E+00  0.00000000E+00
  0.00000000E+00  0.00000000E+00  0.00000000E+00
  0.00000000E+00  0.00000000E+00  0.00000000E+00
  0.00000000E+00  0.00000000E+00  0.00000000E+00
  0.00000000E+00  0.00000000E+00  0.00000000E+00
  0.00000000E+00  0.00000000E+00  0.00000000E+00
  0.00000000E+00  0.00000000E+00  0.00000000E+00
  0.00000000E+00  0.00000000E+00  0.00000000E+00
  0.00000000E+00  0.00000000E+00  0.00000000E+00
  0.00000000E+00  0.00000000E+00  0.00000000E+00
  0.00000000E+00  0.00000000E+00  0.00000000E+00
  0.00000000E+00  0.00000000E+00  0.00000000E+00
  0.00000000E+00  0.00000000E+00  0.00000000E+00
  0.00000000E+00  0.00000000E+00  0.00000000E+00
  0.00000000E+00  0.00000000E+00  0.00000000E+00
  0.00000000E+00  0.00000000E+00  0.00000000E+00
  0.00000000E+00  0.00000000E+00  0.00000000E+00
  0.00000000E+00  0.00000000E+00  0.00000000E+00
  0.00000000E+00  0.00000000E+00  0.00000000E+00
  0.00000000E+00  0.00000000E+00  0.00000000E+00
  0.00000000E+00  0.00000000E+00  0.00000000E+00
  0.00000000E+00  0.00000000E+00  0.00000000E+00
  0.00000000E+00  0.00000000E+00  0.00000000E+00
  0.00000000E+00  0.00000000E+00  0.00000000E+00
  0.00000000E+00  0.00000000E+00  0.00000000E+00
  0.00000000E+00  0.00000000E+00  0.00000000E+00
  0.00000000E+00  0.00000000E+00  0.00000000E+00
  0.00000000E+00  0.00000000E+00  0.00000000E+00
  0.00000000E+00  0.00000000E+00  0.00000000E+00
  0.00000000E+00  0.00000000E+00  0.00000000E+00
  0.00000000E+00  0.00000000E+00  0.00000000E+00
  0.00000000E+00  0.00000000E+00  0.00000000E+00
  0.00000000E+00  0.00000000E+00  0.00000000E+00
  0.00000000E+00  0.00000000E+00  0.00000000E+00
  0.00000000E+00  0.00000000E+00  0.00000000E+00
  0.00000000E+00  0.00000000E+00  0.00000000E+00
  0.00000000E+00  0.00000000E+00  0.00000000E+00
  0.00000000E+00  0.00000000E+00  0.00000000E+00
  0.00000000E+00  0.00000000E+00  0.00000000E+00
  0.00000000E+00  0.00000000E+00  0.00000000E+00
  0.00000000E+00  0.00000000E+00  0.00000000E+00
  0.00000000E+00  0.00000000E+00  0.00000000E+00
  0.00000000E+00  0.00000000E+00  0.00000000E+00
  0.00000000E+00  0.00000000E+00  0.00000000E+00
  0.00000000E+00  0.00000000E+00  0.00000000E+00
  0.00000000E+00  0.00000000E+00  0.00000000E+00
  0.00000000E+00  0.00000000E+00  0.00000000E+00
  0.00000000E+00  0.00000000E+00  0.00000000E+00
  0.00000000E+00  0.00000000E+00  0.00000000E+00
  0.00000000E+00  0.00000000E+00  0.00000000E+00
  0.00000000E+00  0.00000000E+00  0.00000000E+00
  0.00000000E+00  0.00000000E+00  0.00000000E+00
  0.00000000E+00  0.00000000E+00  0.00000000E+00
  0.00000000E+00  0.00000000E+00  0.00000000E+00
  0.00000000E+00  0.00000000E+00  0.00000000E+00
  0.00000000E+00  0.00000000E+00  0.00000000E+00
  0.00000000E+00  0.00000000E+00  0.00000000E+00
  0.00000000E+00  0.00000000E+00  0.00000000E+00
  0.00000000E+00  0.00000000E+00  0.00000000E+00
  0.00000000E+00  0.00000000E+00  0.00000000E+00
  0.00000000E+00  0.00000000E+00  0.00000000E+00
  0.00000000E+00  0.00000000E+00  0.00000000E+00
  0.00000000E+00  0.00000000E+00  0.00000000E+00
  0.00000000E+00  0.00000000E+00  0.00000000E+00
  0.00000000E+00  0.00000000E+00  0.00000000E+00
  0.00000000E+00  0.00000000E+00  0.00000000E+00
  0.00000000E+00  0.00000000E+00  0.00000000E+00
  0.00000000E+00  0.00000000E+00  0.00000000E+00
  0.00000000E+00  0.00000000E+00  0.00000000E+00
  0.00000000E+00  0.00000000E+00  0.00000000E+00
  0.00000000E+00  0.00000000E+00  0.00000000E+00
  0.00000000E+00  0.00000000E+00  0.00000000E+00
  0.00000000E+00  0.00000000E+00  0.00000000E+00
  0.00000000E+00  0.00000000E+00  0.00000000E+00
  0.00000000E+00  0.00000000E+00  0.00000000E+00
  0.00000000E+00  0.00000000E+00  0.00000000E+00
  0.00000000E+00  0.00000000E+00  0.00000000E+00
  0.00000000E+00  0.00000000E+00  0.00000000E+00
  0.00000000E+00  0.00000000E+00  0.00000000E+00
  0.00000000E+00  0.00000000E+00  0.00000000E+00
  0.00000000E+00  0.00000000E+00  0.00000000E+00
  0.00000000E+00  0.00000000E+00  0.00000000E+00
  0.00000000E+00  0.00000000E+00  0.00000000E+00
  0.00000000E+00  0.00000000E+00  0.00000000E+00
  0.00000000E+00  0.00000000E+00  0.00000000E+00
  0.00000000E+00  0.00000000E+00  0.00000000E+00
  0.00000000E+00  0.00000000E+00  0.00000000E+00
  0.00000000E+00  0.00000000E+00  0.00000000E+00
  0.00000000E+00  0.00000000E+00  0.00000000E+00
  0.00000000E+00  0.00000000E+00  0.00000000E+00
  0.00000000E+00  0.00000000E+00  0.00000000E+00
  0.00000000E+00  0.00000000E+00  0.00000000E+00
  0.00000000E+00  0.00000000E+00  0.00000000E+00
  0.00000000E+00  0.00000000E+00  0.00000000E+00
  0.00000000E+00  0.00000000E+00  0.00000000E+00
  0.00000000E+00  0.00000000E+00  0.00000000E+00
  0.00000000E+00  0.00000000E+00  0.00000000E+00
  0.00000000E+00  0.00000000E+00  0.00000000E+00
