 C Pt                                   
   1.0000000000000000     
    17.0979999999999990    0.0000000000000000    0.0000000000000000
     0.0000000000000000   19.7420000000000009    0.0000000000000000
     0.0000000000000000    0.0000000000000000   20.0000000000000000
   C    Pt
   128     8
Direct
  0.7922090564573659  0.7188210302745380  0.3902278112834579
  0.7921119398261611  0.8436570535296007  0.3907893968038481
  0.7920566343855132  0.9685729207295283  0.3913644607273373
  0.7921537477382390  0.0933926900141349  0.3906945619644984
  0.7922659475985490  0.2182954433153088  0.3910041551362766
  0.7924507836100885  0.3432010607244583  0.3918335520655650
  0.7924195224172721  0.4685502780448041  0.3914862992949090
  0.7919139093132008  0.5936838820526096  0.3906008735819049
  0.6673137017353300  0.6564532577568180  0.3895548901703697
  0.6670975736901840  0.7812977324851690  0.3903349328040993
  0.6670179992850610  0.9061526926507354  0.3909381333499538
  0.6669491838863308  0.0308993634546329  0.3911718961194280
  0.6671012126354445  0.1557057222656070  0.3898020913706725
  0.6674889553877916  0.2803647562000324  0.3879761581646187
  0.6676847251294775  0.4056663218451503  0.3914440867093248
  0.6676817395298099  0.5312760650409225  0.3871145313480288
  0.5422867658509249  0.7189411760527317  0.3903772282175040
  0.5419738110393056  0.8437687041603608  0.3903455388230893
  0.5418662420212221  0.9685278365502075  0.3913099767624697
  0.5419765163477529  0.0933582642765551  0.3905839982808134
  0.5420507340622918  0.2181258075380928  0.3876685310901038
  0.5421824579738308  0.3424669189683811  0.3833299287407401
  0.5433800576563561  0.4689422505294241  0.3825619222165784
  0.5428326574101421  0.5937525470381709  0.3945470980802314
  0.4162240981306061  0.6574533628782283  0.3922374324779458
  0.4168371242647070  0.7814036736192463  0.3905638985203086
  0.4170269287122423  0.9062063162371600  0.3907481914513535
  0.4168861149070152  0.0309274767924781  0.3914571607544504
  0.4169194323499756  0.1558852502353547  0.3901420129445746
  0.4170449930990045  0.2804327415548926  0.3876246864225799
  0.4168687871188192  0.4051831068969152  0.3916299415383839
  0.4158233118663861  0.5315987672022315  0.3908659110750312
  0.2916628873436480  0.7190031572359811  0.3908058041567354
  0.2916892452189247  0.8437716123592226  0.3907119101848424
  0.2918749248003101  0.9686886757581128  0.3911936016120141
  0.2919576123412035  0.0935105946848899  0.3913556340036083
  0.2919744700496132  0.2185149985555716  0.3909375260206753
  0.2916480981663730  0.3434370621309617  0.3896189022057910
  0.2914607291178044  0.4685264641114617  0.3882912382826722
  0.2916794933878429  0.5938554644873996  0.3901049876477521
  0.1667715252812753  0.6564063390858019  0.3906443920647772
  0.1668114849463907  0.7813286196309474  0.3909960677184112
  0.1668874061616432  0.9061655662042456  0.3908820972167906
  0.1668696370398236  0.0311506766368689  0.3910393424215715
  0.1668608324966287  0.1560541831497495  0.3913577388960891
  0.1668271941691521  0.2809747924994563  0.3912162829388732
  0.1667456362981117  0.4059398684330210  0.3903583832090989
  0.1667839082363555  0.5311690803009075  0.3899293390715427
  0.0419493961363603  0.7187351750113468  0.3913364896268199
  0.0418704549161450  0.8437657125781869  0.3910735763817174
  0.0419130945858798  0.9686505148901062  0.3908038368779375
  0.0420596777363477  0.0935184410859544  0.3909791607798016
  0.0420118987449296  0.2184840841594639  0.3910165021388634
  0.0419936623193275  0.3434672942520948  0.3910034707335786
  0.0419957691395134  0.4686489567152224  0.3908944340813344
  0.0419179048937895  0.5936768617124777  0.3910487994826093
  0.9171664515769621  0.6562195174157640  0.3909538384277702
  0.9170813590693209  0.7811773401115314  0.3910817716149215
  0.9170498114593600  0.9061482367324742  0.3910458740718280
  0.9170249866339524  0.0310544453263758  0.3910947836500450
  0.9171196879221416  0.1559469567326622  0.3907224239261295
  0.9172522679880064  0.2808852207711889  0.3912232192691136
  0.9170076956353400  0.4060178252547146  0.3919178923800073
  0.9172128189660470  0.5311585918781219  0.3914462720112936
  0.7089493305976380  0.7188681340880854  0.3899552449881607
  0.7087983823340344  0.8436987940166160  0.3906660790423201
  0.7086512447190941  0.9685596063930323  0.3913259466724931
  0.7086543832885392  0.0933445994755951  0.3906127396158320
  0.7089607547578572  0.2180916367288809  0.3897119992301887
  0.7094847597806121  0.3425341468503600  0.3907035737607765
  0.7094597485983357  0.4689507567636295  0.3903248705063945
  0.7090261681954821  0.5938917972461821  0.3891480923885331
  0.5843131644569426  0.6570435378087193  0.3910673958324209
  0.5837883925559122  0.7813813373072820  0.3901342980368356
  0.5836471592119329  0.9060666664145135  0.3908400348429975
  0.5836778326875185  0.0309839521922429  0.3912268191500768
  0.5837427683915226  0.1557155810053857  0.3895107173679487
  0.5838233697029140  0.2804260786261648  0.3853288087114169
  0.5839068458404200  0.4055382553308103  0.3855813418991596
  0.5846494074458366  0.5308056530365022  0.3854533336743286
  0.4583252173409020  0.7191773125326708  0.3909193875013720
  0.4586095687292954  0.8438368814912142  0.3903909174549026
  0.4585271750883799  0.9686132972039305  0.3912853867052692
  0.4585654812317477  0.0933298967031406  0.3908093639521219
  0.4587529674596341  0.2180174566462773  0.3883269019844436
  0.4591044686149793  0.3423094840026012  0.3860197655988127
  0.4593005885712080  0.4687404675079090  0.3891483572595573
  0.4581499842591463  0.5944029044547668  0.3948142791509938
  0.3332052207378068  0.6566267196660810  0.3911106320665887
  0.3334023554409850  0.7813352358407549  0.3907454715186963
  0.3333949484704829  0.9062119729733579  0.3908060620740707
  0.3334599562687240  0.0311003792683810  0.3914754409698797
  0.3335191020697703  0.1559743160339424  0.3909306874589397
  0.3335524711779730  0.2808034325609844  0.3895820685829193
  0.3327739969236815  0.4058458337018429  0.3894918219256126
  0.3329534173226448  0.5313825352561066  0.3891132724753183
  0.2083629853529307  0.7189027230449919  0.3907233878968272
  0.2084958068929341  0.8438156002669718  0.3908960924251918
  0.2085634778748829  0.9686282832116776  0.3910146955241282
  0.2085015937083790  0.0935521166296685  0.3912521453527499
  0.2085208106757659  0.2185683679930554  0.3914929294839282
  0.2083020993819280  0.3434328142175691  0.3904629147621730
  0.2084095216830327  0.4685924961495823  0.3892305611794767
  0.2085670847277592  0.5937623104027714  0.3900689603281345
  0.0835673441303843  0.6563122503401895  0.3910769706583772
  0.0835088605688475  0.7812786856251769  0.3912558503693159
  0.0835173010231891  0.9061878797544350  0.3908272582987233
  0.0835949575626811  0.0311409769736249  0.3909219477653743
  0.0836531581517681  0.1559565847594246  0.3910972701303048
  0.0836263824898061  0.2809956846150952  0.3911171226923074
  0.0835877732797473  0.4061176315514086  0.3908541849943628
  0.0835154381417692  0.5311059064486635  0.3906771693675626
  0.9587343004564383  0.7187961038630624  0.3911574600450730
  0.9586689300982607  0.8437243116753530  0.3911128357185721
  0.9586497960266683  0.9686528719749998  0.3910050578750008
  0.9586761743154397  0.0935203400212897  0.3908869786750619
  0.9587026962268916  0.2184064043948898  0.3908265239728964
  0.9587885618365256  0.3433858028026174  0.3913575801194940
  0.9589100520148521  0.4686463329821947  0.3914933468971720
  0.9588150878074663  0.5936811539976917  0.3911413806800239
  0.8337775791087398  0.6562468393174068  0.3906471905457907
  0.8338074087638306  0.7812571911100232  0.3906245055481226
  0.8335952900643286  0.9061635941060414  0.3911431920097313
  0.8337209423842709  0.0310167688005938  0.3911395887059914
  0.8338114661265392  0.1559163770045568  0.3907495591425870
  0.8339853180059574  0.2806701667632627  0.3915091814401891
  0.8339661466917437  0.4058900650463139  0.3921618175344219
  0.8340079472491532  0.5311779811874754  0.3912870858728944
  0.6310073040064991  0.4105982926835958  0.5012516556200433
  0.5681014071915175  0.6048696791693415  0.6065822536289948
  0.3856281288903047  0.4039428438857022  0.6030214047713437
  0.4493265291433411  0.4414799336079754  0.4927386786242270
  0.6231543570210752  0.4875755305413859  0.5993109904934811
  0.5312724025077438  0.3809132460602771  0.5922851088842968
  0.4947488668115981  0.5732894092894243  0.4987547151582020
  0.4680316364100187  0.5104259646974950  0.6111341345124259

  0.00000000E+00  0.00000000E+00  0.00000000E+00
  0.00000000E+00  0.00000000E+00  0.00000000E+00
  0.00000000E+00  0.00000000E+00  0.00000000E+00
  0.00000000E+00  0.00000000E+00  0.00000000E+00
  0.00000000E+00  0.00000000E+00  0.00000000E+00
  0.00000000E+00  0.00000000E+00  0.00000000E+00
  0.00000000E+00  0.00000000E+00  0.00000000E+00
  0.00000000E+00  0.00000000E+00  0.00000000E+00
  0.00000000E+00  0.00000000E+00  0.00000000E+00
  0.00000000E+00  0.00000000E+00  0.00000000E+00
  0.00000000E+00  0.00000000E+00  0.00000000E+00
  0.00000000E+00  0.00000000E+00  0.00000000E+00
  0.00000000E+00  0.00000000E+00  0.00000000E+00
  0.00000000E+00  0.00000000E+00  0.00000000E+00
  0.00000000E+00  0.00000000E+00  0.00000000E+00
  0.00000000E+00  0.00000000E+00  0.00000000E+00
  0.00000000E+00  0.00000000E+00  0.00000000E+00
  0.00000000E+00  0.00000000E+00  0.00000000E+00
  0.00000000E+00  0.00000000E+00  0.00000000E+00
  0.00000000E+00  0.00000000E+00  0.00000000E+00
  0.00000000E+00  0.00000000E+00  0.00000000E+00
  0.00000000E+00  0.00000000E+00  0.00000000E+00
  0.00000000E+00  0.00000000E+00  0.00000000E+00
  0.00000000E+00  0.00000000E+00  0.00000000E+00
  0.00000000E+00  0.00000000E+00  0.00000000E+00
  0.00000000E+00  0.00000000E+00  0.00000000E+00
  0.00000000E+00  0.00000000E+00  0.00000000E+00
  0.00000000E+00  0.00000000E+00  0.00000000E+00
  0.00000000E+00  0.00000000E+00  0.00000000E+00
  0.00000000E+00  0.00000000E+00  0.00000000E+00
  0.00000000E+00  0.00000000E+00  0.00000000E+00
  0.00000000E+00  0.00000000E+00  0.00000000E+00
  0.00000000E+00  0.00000000E+00  0.00000000E+00
  0.00000000E+00  0.00000000E+00  0.00000000E+00
  0.00000000E+00  0.00000000E+00  0.00000000E+00
  0.00000000E+00  0.00000000E+00  0.00000000E+00
  0.00000000E+00  0.00000000E+00  0.00000000E+00
  0.00000000E+00  0.00000000E+00  0.00000000E+00
  0.00000000E+00  0.00000000E+00  0.00000000E+00
  0.00000000E+00  0.00000000E+00  0.00000000E+00
  0.00000000E+00  0.00000000E+00  0.00000000E+00
  0.00000000E+00  0.00000000E+00  0.00000000E+00
  0.00000000E+00  0.00000000E+00  0.00000000E+00
  0.00000000E+00  0.00000000E+00  0.00000000E+00
  0.00000000E+00  0.00000000E+00  0.00000000E+00
  0.00000000E+00  0.00000000E+00  0.00000000E+00
  0.00000000E+00  0.00000000E+00  0.00000000E+00
  0.00000000E+00  0.00000000E+00  0.00000000E+00
  0.00000000E+00  0.00000000E+00  0.00000000E+00
  0.00000000E+00  0.00000000E+00  0.00000000E+00
  0.00000000E+00  0.00000000E+00  0.00000000E+00
  0.00000000E+00  0.00000000E+00  0.00000000E+00
  0.00000000E+00  0.00000000E+00  0.00000000E+00
  0.00000000E+00  0.00000000E+00  0.00000000E+00
  0.00000000E+00  0.00000000E+00  0.00000000E+00
  0.00000000E+00  0.00000000E+00  0.00000000E+00
  0.00000000E+00  0.00000000E+00  0.00000000E+00
  0.00000000E+00  0.00000000E+00  0.00000000E+00
  0.00000000E+00  0.00000000E+00  0.00000000E+00
  0.00000000E+00  0.00000000E+00  0.00000000E+00
  0.00000000E+00  0.00000000E+00  0.00000000E+00
  0.00000000E+00  0.00000000E+00  0.00000000E+00
  0.00000000E+00  0.00000000E+00  0.00000000E+00
  0.00000000E+00  0.00000000E+00  0.00000000E+00
  0.00000000E+00  0.00000000E+00  0.00000000E+00
  0.00000000E+00  0.00000000E+00  0.00000000E+00
  0.00000000E+00  0.00000000E+00  0.00000000E+00
  0.00000000E+00  0.00000000E+00  0.00000000E+00
  0.00000000E+00  0.00000000E+00  0.00000000E+00
  0.00000000E+00  0.00000000E+00  0.00000000E+00
  0.00000000E+00  0.00000000E+00  0.00000000E+00
  0.00000000E+00  0.00000000E+00  0.00000000E+00
  0.00000000E+00  0.00000000E+00  0.00000000E+00
  0.00000000E+00  0.00000000E+00  0.00000000E+00
  0.00000000E+00  0.00000000E+00  0.00000000E+00
  0.00000000E+00  0.00000000E+00  0.00000000E+00
  0.00000000E+00  0.00000000E+00  0.00000000E+00
  0.00000000E+00  0.00000000E+00  0.00000000E+00
  0.00000000E+00  0.00000000E+00  0.00000000E+00
  0.00000000E+00  0.00000000E+00  0.00000000E+00
  0.00000000E+00  0.00000000E+00  0.00000000E+00
  0.00000000E+00  0.00000000E+00  0.00000000E+00
  0.00000000E+00  0.00000000E+00  0.00000000E+00
  0.00000000E+00  0.00000000E+00  0.00000000E+00
  0.00000000E+00  0.00000000E+00  0.00000000E+00
  0.00000000E+00  0.00000000E+00  0.00000000E+00
  0.00000000E+00  0.00000000E+00  0.00000000E+00
  0.00000000E+00  0.00000000E+00  0.00000000E+00
  0.00000000E+00  0.00000000E+00  0.00000000E+00
  0.00000000E+00  0.00000000E+00  0.00000000E+00
  0.00000000E+00  0.00000000E+00  0.00000000E+00
  0.00000000E+00  0.00000000E+00  0.00000000E+00
  0.00000000E+00  0.00000000E+00  0.00000000E+00
  0.00000000E+00  0.00000000E+00  0.00000000E+00
  0.00000000E+00  0.00000000E+00  0.00000000E+00
  0.00000000E+00  0.00000000E+00  0.00000000E+00
  0.00000000E+00  0.00000000E+00  0.00000000E+00
  0.00000000E+00  0.00000000E+00  0.00000000E+00
  0.00000000E+00  0.00000000E+00  0.00000000E+00
  0.00000000E+00  0.00000000E+00  0.00000000E+00
  0.00000000E+00  0.00000000E+00  0.00000000E+00
  0.00000000E+00  0.00000000E+00  0.00000000E+00
  0.00000000E+00  0.00000000E+00  0.00000000E+00
  0.00000000E+00  0.00000000E+00  0.00000000E+00
  0.00000000E+00  0.00000000E+00  0.00000000E+00
  0.00000000E+00  0.00000000E+00  0.00000000E+00
  0.00000000E+00  0.00000000E+00  0.00000000E+00
  0.00000000E+00  0.00000000E+00  0.00000000E+00
  0.00000000E+00  0.00000000E+00  0.00000000E+00
  0.00000000E+00  0.00000000E+00  0.00000000E+00
  0.00000000E+00  0.00000000E+00  0.00000000E+00
  0.00000000E+00  0.00000000E+00  0.00000000E+00
  0.00000000E+00  0.00000000E+00  0.00000000E+00
  0.00000000E+00  0.00000000E+00  0.00000000E+00
  0.00000000E+00  0.00000000E+00  0.00000000E+00
  0.00000000E+00  0.00000000E+00  0.00000000E+00
  0.00000000E+00  0.00000000E+00  0.00000000E+00
  0.00000000E+00  0.00000000E+00  0.00000000E+00
  0.00000000E+00  0.00000000E+00  0.00000000E+00
  0.00000000E+00  0.00000000E+00  0.00000000E+00
  0.00000000E+00  0.00000000E+00  0.00000000E+00
  0.00000000E+00  0.00000000E+00  0.00000000E+00
  0.00000000E+00  0.00000000E+00  0.00000000E+00
  0.00000000E+00  0.00000000E+00  0.00000000E+00
  0.00000000E+00  0.00000000E+00  0.00000000E+00
  0.00000000E+00  0.00000000E+00  0.00000000E+00
  0.00000000E+00  0.00000000E+00  0.00000000E+00
  0.00000000E+00  0.00000000E+00  0.00000000E+00
  0.00000000E+00  0.00000000E+00  0.00000000E+00
  0.00000000E+00  0.00000000E+00  0.00000000E+00
  0.00000000E+00  0.00000000E+00  0.00000000E+00
  0.00000000E+00  0.00000000E+00  0.00000000E+00
  0.00000000E+00  0.00000000E+00  0.00000000E+00
  0.00000000E+00  0.00000000E+00  0.00000000E+00
  0.00000000E+00  0.00000000E+00  0.00000000E+00
  0.00000000E+00  0.00000000E+00  0.00000000E+00
