 C Pt                                   
   1.0000000000000000     
    17.0979999999999990    0.0000000000000000    0.0000000000000000
     0.0000000000000000   19.7420000000000009    0.0000000000000000
     0.0000000000000000    0.0000000000000000   20.0000000000000000
   C    Pt
   128     8
Direct
  0.7915908112414295  0.7189735985146120  0.3915861327250639
  0.7915503519486683  0.8439274858427825  0.3916624006932507
  0.7914230983058625  0.9688825581802480  0.3934837308588978
  0.7914359486589035  0.0939229210002096  0.3933419845440124
  0.7915649118959123  0.2189314488448590  0.3917557742262732
  0.7917339152623711  0.3438930870155448  0.3917210188263986
  0.7918353610765042  0.4688747169180965  0.3949305699783817
  0.7917029256662550  0.5941958537749141  0.3945219219400802
  0.6668025068843619  0.6566367611099961  0.3871427509489256
  0.6665317281996243  0.7814860174928954  0.3868269129460819
  0.6664704438492691  0.9063902118091844  0.3910848220255623
  0.6663798530204225  0.0314032213703013  0.3938739197842539
  0.6663771186180804  0.1562999716997456  0.3920885180670382
  0.6665431164687072  0.2812836171455544  0.3900759573122866
  0.6669627494368593  0.4061255454426616  0.3925856056302298
  0.6669861649821776  0.5316892109135000  0.3982378560855053
  0.5417257458494861  0.7192409848450906  0.3780212005670900
  0.5415709852277560  0.8439724112724207  0.3856198864355609
  0.5413908057757204  0.9687838790031410  0.3927361780294383
  0.5414129024857529  0.0937502321127169  0.3936134589523526
  0.5413541728185545  0.2186306613052634  0.3910218336257288
  0.5413679521310202  0.3435743734165400  0.3912392373836311
  0.5420733941093581  0.4680471795292927  0.3922700049579689
  0.5411814477950391  0.5949026779021545  0.3808672817693154
  0.4166224823852410  0.6568717815620417  0.3736172120975874
  0.4166032263514519  0.7816233005592723  0.3796977765108637
  0.4166543292276870  0.9062894239877013  0.3899814912649703
  0.4165651622293522  0.0312016599233709  0.3945125160633800
  0.4164695821440451  0.1561263107071928  0.3929457650505406
  0.4163332152732369  0.2810200842589723  0.3910008417711855
  0.4156660364435543  0.4053886919922582  0.3909563057326618
  0.4163310661455374  0.5321713082606855  0.3872107387723492
  0.2916767624576900  0.7189294733990463  0.3806957602512022
  0.2917704339787211  0.8437716902718321  0.3888130582944148
  0.2915896387751405  0.9687584108802312  0.3942428747877109
  0.2914827734909934  0.0937620929146751  0.3942561783601308
  0.2914559359211951  0.2186878038747022  0.3920685533107914
  0.2913458768130696  0.3436974836340956  0.3895206640934987
  0.2913107881893213  0.4689709636616781  0.3849798774913231
  0.2912850546133360  0.5940016914670543  0.3785101309930944
  0.1665935215230832  0.6564812051604225  0.3864875968108076
  0.1668986780396040  0.7812878693518630  0.3910134819147826
  0.1667677602774103  0.9062916880700568  0.3943341418591333
  0.1665677968616228  0.0313936834589834  0.3941902693333440
  0.1665152224510048  0.1562904698691370  0.3930040755254690
  0.1665331118594004  0.2813405725704031  0.3917008041448539
  0.1664988158319218  0.4064309753669815  0.3893605732166366
  0.1665092949194531  0.5315320692694726  0.3866541737247154
  0.0417994027338809  0.7189102221314525  0.3932993399326782
  0.0417649226421032  0.8438922708435409  0.3946156358645305
  0.0415749505894040  0.9688602593418549  0.3939386377616711
  0.0415776130980834  0.0939086742139376  0.3930712288960126
  0.0415750581229407  0.2189415038888390  0.3930371313529182
  0.0416141871164092  0.3440108953998091  0.3926328563115574
  0.0416281310811669  0.4691087063758386  0.3921040645995540
  0.0415777344730732  0.5940137642086865  0.3919520223299440
  0.9167535196090962  0.6565225427218219  0.3936690259699182
  0.9165738264044465  0.7814019019551576  0.3938280350429211
  0.9165188639870528  0.9063698158118131  0.3935243458001183
  0.9164233395916443  0.0313565676973024  0.3933460161399313
  0.9164902345780080  0.1564822985580255  0.3931719835325350
  0.9166774960868238  0.2815103516940387  0.3926035886547247
  0.9167283271196625  0.4065402293356351  0.3930507985353813
  0.9166213144416441  0.5316091503781564  0.3941892790060047
  0.7082880890835691  0.7190429305585493  0.3881809006266028
  0.7081182736223364  0.8440036292209302  0.3899165812220192
  0.7080882337932837  0.9688561389287457  0.3932050963009217
  0.7080754770892206  0.0938941872197553  0.3934247730441608
  0.7081024875983510  0.2189254447969781  0.3908759121095954
  0.7083775310448907  0.3437634562385896  0.3909760701601097
  0.7087744585649878  0.4684796533963886  0.3959826505247857
  0.7087606553791037  0.5946914407432327  0.3935884230204778
  0.5834058132081481  0.6568087680655172  0.3807003711344507
  0.5833016083170622  0.7816408895935349  0.3828858872535527
  0.5831987247841113  0.9063213706436770  0.3901645031804664
  0.5832187522236555  0.0312897475607071  0.3939253618316809
  0.5831408054176664  0.1562734040566784  0.3920986123881756
  0.5830094891556162  0.2812556669318330  0.3904423078222821
  0.5834440436965088  0.4058934965999769  0.3918276329748693
  0.5827827374947544  0.5320034368501180  0.3929967186214515
  0.4583958838833413  0.7191980091677322  0.3752304134880211
  0.4581800042395253  0.8439858108088519  0.3848224193496557
  0.4582447510360370  0.9687382714419849  0.3929103438549379
  0.4582146521059998  0.0937424363076338  0.3940495139867211
  0.4580434287114760  0.2186064550178302  0.3914803830766796
  0.4578933856442411  0.3434261048752030  0.3911700154651362
  0.4578853432334442  0.4684908182947130  0.3939279641963638
  0.4587462049175700  0.5947263578141452  0.3771126734073230
  0.3332596584727112  0.6565825408827285  0.3761752687194577
  0.3333619174499461  0.7815166203601562  0.3824620762572418
  0.3332929436514822  0.9062961668663920  0.3913548928365227
  0.3333239275422186  0.0312881931858540  0.3947939114308474
  0.3332010681846166  0.1562050143905172  0.3930828719995713
  0.3329903123747630  0.2811574202356127  0.3911252006709459
  0.3329276342704681  0.4060944969715084  0.3879653187571561
  0.3324864276966830  0.5315606557870060  0.3818099802923195
  0.2084114100251099  0.7188618944297518  0.3861065238005484
  0.2084904285195948  0.8438803509503322  0.3918840545518630
  0.2084372560178470  0.9688216828008472  0.3944995059977817
  0.2083634403464087  0.0938236863744762  0.3939589642048472
  0.2081574598749104  0.2188499141687333  0.3921387597886908
  0.2080379647641955  0.3438342279246944  0.3900902878042015
  0.2081677143140174  0.4689816926272740  0.3864649775612060
  0.2082454393145918  0.5940129869177828  0.3830523463896222
  0.0834738759375064  0.6564815337650544  0.3909381973877563
  0.0834765757100796  0.7813510465220355  0.3935271367727730
  0.0833692886159650  0.9063505730762977  0.3947216236012865
  0.0832887980086425  0.0314048307647382  0.3935075169825344
  0.0831849982319002  0.1563636328770914  0.3930275392289475
  0.0832147615515539  0.2814641647178984  0.3925643663087842
  0.0833200411462681  0.4065391259191288  0.3914309766699966
  0.0834066928884069  0.5315367720942179  0.3905934579327338
  0.9584338483167261  0.7189731026357139  0.3940188424014313
  0.9583729222515838  0.8438530131529886  0.3941335215917072
  0.9582797281324843  0.9689008414753378  0.3935069023110405
  0.9582097168761412  0.0939325020351627  0.3931614705379848
  0.9582459123981949  0.2189270928619967  0.3930593105967284
  0.9583551887810750  0.3440115970910256  0.3928680219430532
  0.9584090294280240  0.4690231226992094  0.3934248477636587
  0.9583896704058333  0.5940157084820978  0.3936331433153603
  0.8334582880304290  0.6566411648109091  0.3931566744740679
  0.8333488509214145  0.7814707129517617  0.3923332666513578
  0.8331871289569805  0.9063888146936371  0.3929148758800583
  0.8331383052959196  0.0314678296984796  0.3936627291245692
  0.8331957784008386  0.1564564110413405  0.3928516534690615
  0.8333031503146354  0.2814119779213541  0.3917908310785077
  0.8334749253501506  0.4064423351893471  0.3929992378685346
  0.8334108009045788  0.5315405334547120  0.3952202414275050
  0.4397914606209719  0.5285368214260605  0.6220517422591579
  0.3754902601973013  0.6337283430400408  0.5651183814133439
  0.5260707835650477  0.6372105534064203  0.5435496201738030
  0.5996402658207861  0.5288268451223423  0.5022346675053491
  0.5847162027041629  0.5530699226847420  0.6257653172638346
  0.3130517616489251  0.5173012755417065  0.5533835539217069
  0.4498174219815578  0.7411443392481023  0.5577873632200104
  0.4460180193337548  0.5060696970918538  0.4982656509008531

  0.00000000E+00  0.00000000E+00  0.00000000E+00
  0.00000000E+00  0.00000000E+00  0.00000000E+00
  0.00000000E+00  0.00000000E+00  0.00000000E+00
  0.00000000E+00  0.00000000E+00  0.00000000E+00
  0.00000000E+00  0.00000000E+00  0.00000000E+00
  0.00000000E+00  0.00000000E+00  0.00000000E+00
  0.00000000E+00  0.00000000E+00  0.00000000E+00
  0.00000000E+00  0.00000000E+00  0.00000000E+00
  0.00000000E+00  0.00000000E+00  0.00000000E+00
  0.00000000E+00  0.00000000E+00  0.00000000E+00
  0.00000000E+00  0.00000000E+00  0.00000000E+00
  0.00000000E+00  0.00000000E+00  0.00000000E+00
  0.00000000E+00  0.00000000E+00  0.00000000E+00
  0.00000000E+00  0.00000000E+00  0.00000000E+00
  0.00000000E+00  0.00000000E+00  0.00000000E+00
  0.00000000E+00  0.00000000E+00  0.00000000E+00
  0.00000000E+00  0.00000000E+00  0.00000000E+00
  0.00000000E+00  0.00000000E+00  0.00000000E+00
  0.00000000E+00  0.00000000E+00  0.00000000E+00
  0.00000000E+00  0.00000000E+00  0.00000000E+00
  0.00000000E+00  0.00000000E+00  0.00000000E+00
  0.00000000E+00  0.00000000E+00  0.00000000E+00
  0.00000000E+00  0.00000000E+00  0.00000000E+00
  0.00000000E+00  0.00000000E+00  0.00000000E+00
  0.00000000E+00  0.00000000E+00  0.00000000E+00
  0.00000000E+00  0.00000000E+00  0.00000000E+00
  0.00000000E+00  0.00000000E+00  0.00000000E+00
  0.00000000E+00  0.00000000E+00  0.00000000E+00
  0.00000000E+00  0.00000000E+00  0.00000000E+00
  0.00000000E+00  0.00000000E+00  0.00000000E+00
  0.00000000E+00  0.00000000E+00  0.00000000E+00
  0.00000000E+00  0.00000000E+00  0.00000000E+00
  0.00000000E+00  0.00000000E+00  0.00000000E+00
  0.00000000E+00  0.00000000E+00  0.00000000E+00
  0.00000000E+00  0.00000000E+00  0.00000000E+00
  0.00000000E+00  0.00000000E+00  0.00000000E+00
  0.00000000E+00  0.00000000E+00  0.00000000E+00
  0.00000000E+00  0.00000000E+00  0.00000000E+00
  0.00000000E+00  0.00000000E+00  0.00000000E+00
  0.00000000E+00  0.00000000E+00  0.00000000E+00
  0.00000000E+00  0.00000000E+00  0.00000000E+00
  0.00000000E+00  0.00000000E+00  0.00000000E+00
  0.00000000E+00  0.00000000E+00  0.00000000E+00
  0.00000000E+00  0.00000000E+00  0.00000000E+00
  0.00000000E+00  0.00000000E+00  0.00000000E+00
  0.00000000E+00  0.00000000E+00  0.00000000E+00
  0.00000000E+00  0.00000000E+00  0.00000000E+00
  0.00000000E+00  0.00000000E+00  0.00000000E+00
  0.00000000E+00  0.00000000E+00  0.00000000E+00
  0.00000000E+00  0.00000000E+00  0.00000000E+00
  0.00000000E+00  0.00000000E+00  0.00000000E+00
  0.00000000E+00  0.00000000E+00  0.00000000E+00
  0.00000000E+00  0.00000000E+00  0.00000000E+00
  0.00000000E+00  0.00000000E+00  0.00000000E+00
  0.00000000E+00  0.00000000E+00  0.00000000E+00
  0.00000000E+00  0.00000000E+00  0.00000000E+00
  0.00000000E+00  0.00000000E+00  0.00000000E+00
  0.00000000E+00  0.00000000E+00  0.00000000E+00
  0.00000000E+00  0.00000000E+00  0.00000000E+00
  0.00000000E+00  0.00000000E+00  0.00000000E+00
  0.00000000E+00  0.00000000E+00  0.00000000E+00
  0.00000000E+00  0.00000000E+00  0.00000000E+00
  0.00000000E+00  0.00000000E+00  0.00000000E+00
  0.00000000E+00  0.00000000E+00  0.00000000E+00
  0.00000000E+00  0.00000000E+00  0.00000000E+00
  0.00000000E+00  0.00000000E+00  0.00000000E+00
  0.00000000E+00  0.00000000E+00  0.00000000E+00
  0.00000000E+00  0.00000000E+00  0.00000000E+00
  0.00000000E+00  0.00000000E+00  0.00000000E+00
  0.00000000E+00  0.00000000E+00  0.00000000E+00
  0.00000000E+00  0.00000000E+00  0.00000000E+00
  0.00000000E+00  0.00000000E+00  0.00000000E+00
  0.00000000E+00  0.00000000E+00  0.00000000E+00
  0.00000000E+00  0.00000000E+00  0.00000000E+00
  0.00000000E+00  0.00000000E+00  0.00000000E+00
  0.00000000E+00  0.00000000E+00  0.00000000E+00
  0.00000000E+00  0.00000000E+00  0.00000000E+00
  0.00000000E+00  0.00000000E+00  0.00000000E+00
  0.00000000E+00  0.00000000E+00  0.00000000E+00
  0.00000000E+00  0.00000000E+00  0.00000000E+00
  0.00000000E+00  0.00000000E+00  0.00000000E+00
  0.00000000E+00  0.00000000E+00  0.00000000E+00
  0.00000000E+00  0.00000000E+00  0.00000000E+00
  0.00000000E+00  0.00000000E+00  0.00000000E+00
  0.00000000E+00  0.00000000E+00  0.00000000E+00
  0.00000000E+00  0.00000000E+00  0.00000000E+00
  0.00000000E+00  0.00000000E+00  0.00000000E+00
  0.00000000E+00  0.00000000E+00  0.00000000E+00
  0.00000000E+00  0.00000000E+00  0.00000000E+00
  0.00000000E+00  0.00000000E+00  0.00000000E+00
  0.00000000E+00  0.00000000E+00  0.00000000E+00
  0.00000000E+00  0.00000000E+00  0.00000000E+00
  0.00000000E+00  0.00000000E+00  0.00000000E+00
  0.00000000E+00  0.00000000E+00  0.00000000E+00
  0.00000000E+00  0.00000000E+00  0.00000000E+00
  0.00000000E+00  0.00000000E+00  0.00000000E+00
  0.00000000E+00  0.00000000E+00  0.00000000E+00
  0.00000000E+00  0.00000000E+00  0.00000000E+00
  0.00000000E+00  0.00000000E+00  0.00000000E+00
  0.00000000E+00  0.00000000E+00  0.00000000E+00
  0.00000000E+00  0.00000000E+00  0.00000000E+00
  0.00000000E+00  0.00000000E+00  0.00000000E+00
  0.00000000E+00  0.00000000E+00  0.00000000E+00
  0.00000000E+00  0.00000000E+00  0.00000000E+00
  0.00000000E+00  0.00000000E+00  0.00000000E+00
  0.00000000E+00  0.00000000E+00  0.00000000E+00
  0.00000000E+00  0.00000000E+00  0.00000000E+00
  0.00000000E+00  0.00000000E+00  0.00000000E+00
  0.00000000E+00  0.00000000E+00  0.00000000E+00
  0.00000000E+00  0.00000000E+00  0.00000000E+00
  0.00000000E+00  0.00000000E+00  0.00000000E+00
  0.00000000E+00  0.00000000E+00  0.00000000E+00
  0.00000000E+00  0.00000000E+00  0.00000000E+00
  0.00000000E+00  0.00000000E+00  0.00000000E+00
  0.00000000E+00  0.00000000E+00  0.00000000E+00
  0.00000000E+00  0.00000000E+00  0.00000000E+00
  0.00000000E+00  0.00000000E+00  0.00000000E+00
  0.00000000E+00  0.00000000E+00  0.00000000E+00
  0.00000000E+00  0.00000000E+00  0.00000000E+00
  0.00000000E+00  0.00000000E+00  0.00000000E+00
  0.00000000E+00  0.00000000E+00  0.00000000E+00
  0.00000000E+00  0.00000000E+00  0.00000000E+00
  0.00000000E+00  0.00000000E+00  0.00000000E+00
  0.00000000E+00  0.00000000E+00  0.00000000E+00
  0.00000000E+00  0.00000000E+00  0.00000000E+00
  0.00000000E+00  0.00000000E+00  0.00000000E+00
  0.00000000E+00  0.00000000E+00  0.00000000E+00
  0.00000000E+00  0.00000000E+00  0.00000000E+00
  0.00000000E+00  0.00000000E+00  0.00000000E+00
  0.00000000E+00  0.00000000E+00  0.00000000E+00
  0.00000000E+00  0.00000000E+00  0.00000000E+00
  0.00000000E+00  0.00000000E+00  0.00000000E+00
  0.00000000E+00  0.00000000E+00  0.00000000E+00
  0.00000000E+00  0.00000000E+00  0.00000000E+00
  0.00000000E+00  0.00000000E+00  0.00000000E+00
  0.00000000E+00  0.00000000E+00  0.00000000E+00
