 C Pt                                   
   1.0000000000000000     
    17.0979999999999990    0.0000000000000000    0.0000000000000000
     0.0000000000000000   19.7420000000000009    0.0000000000000000
     0.0000000000000000    0.0000000000000000   20.0000000000000000
   C    Pt
   128     8
Direct
  0.7918496147813014  0.7186692400472736  0.3759018952783670
  0.7917381252900002  0.8436782949882474  0.3759021843830062
  0.7917465443695012  0.9686568119133673  0.3757807621751588
  0.7917813443666337  0.0935618803070828  0.3759544191513342
  0.7919190353731071  0.2184694854231071  0.3762034120426621
  0.7920986673713917  0.3433981974603624  0.3752273892707405
  0.7922277512181133  0.4683009355836075  0.3752279533375830
  0.7920012085021090  0.5936953432734453  0.3766119152906581
  0.6670636166870150  0.6561323780004371  0.3756368465170436
  0.6667313091649965  0.7811535506346495  0.3756474629784029
  0.6666923589591718  0.9061620441201218  0.3759071165669241
  0.6667868984553391  0.0310928346566613  0.3758805791913226
  0.6668336179513504  0.1559681174190331  0.3764292051511368
  0.6669201488467624  0.2807747589663868  0.3752914882404991
  0.6673944269763403  0.4052973023756741  0.3709700158082703
  0.6676207243052723  0.5307140445116917  0.3792197128579057
  0.5416310061872955  0.7188048803077526  0.3752215068377786
  0.5416591820314894  0.8437666305850916  0.3759582444664109
  0.5417317533070921  0.9686580143682366  0.3758516474346453
  0.5417766997585113  0.0935793664199904  0.3761747647961641
  0.5418757855732272  0.2183905355966337  0.3764657075948334
  0.5419171407463150  0.3430222939886178  0.3721305369878295
  0.5418393526688287  0.4670374894891969  0.3678098123296595
  0.5420671325012762  0.5943976468481891  0.3748932486375555
  0.4160913517522306  0.6568903344219048  0.3747333126783256
  0.4165994001847072  0.7814290960584012  0.3756428404878179
  0.4166899035828591  0.9063053600947238  0.3760283023540258
  0.4167365670984517  0.0311990106807606  0.3757840995200961
  0.4167932606960636  0.1560705998361144  0.3763966746723778
  0.4168404561379923  0.2808986948428410  0.3759057768529701
  0.4167725974994698  0.4052565418720920  0.3706594749071480
  0.4161375047440944  0.5304055071360623  0.3736301538297337
  0.2915480478440711  0.7188462984881163  0.3747479652869551
  0.2916583626154018  0.8438699581542214  0.3761004208770327
  0.2917455963768649  0.9687852002227327  0.3758370447561892
  0.2917955901077000  0.0937165912139557  0.3758070976142489
  0.2918322851928306  0.2186102280770352  0.3764611313984836
  0.2917766878648814  0.3436220409685206  0.3759716722250348
  0.2911383339434190  0.4686333643011673  0.3724403603740729
  0.2911999674625767  0.5936610134943489  0.3723050974771091
  0.1665291070396782  0.6562826391436118  0.3753401943983806
  0.1666330839225630  0.7813043505709333  0.3759371663387537
  0.1667285205284325  0.9062830426234235  0.3759199018563805
  0.1667762876455552  0.0312559928809336  0.3757557259005698
  0.1668348906893060  0.1562168079607618  0.3758414546216341
  0.1667750930673988  0.2811823517949594  0.3763054072285413
  0.1666097353251312  0.4061159158459658  0.3759126333897830
  0.1664733084553694  0.5312032353406464  0.3750184709092752
  0.0416930306276447  0.7188095824944456  0.3760296976635626
  0.0417069258656773  0.8437552066526670  0.3759009947713564
  0.0417378494745325  0.9687380680368266  0.3757960112147075
  0.0418148236289159  0.0937299849879718  0.3757828164799268
  0.0418537842353390  0.2186678256166686  0.3758355608902245
  0.0418096164673482  0.3435698106834435  0.3761664547228600
  0.0416908782132188  0.4686700540043525  0.3761214747351433
  0.0416311943654423  0.5937217222095659  0.3761345035232671
  0.9167902028446778  0.6562388135957639  0.3759270561681424
  0.9167815655141095  0.7812490342811251  0.3758662685594723
  0.9167530630739891  0.9062072734078431  0.3758410765766617
  0.9167679379350631  0.0311505216803546  0.3757798024560561
  0.9168663557008131  0.1561420632423719  0.3759229713574537
  0.9169407579237395  0.2810611108163515  0.3760812950811778
  0.9169821737414769  0.4059773752702371  0.3757601311225484
  0.9167305093850290  0.5311379029005939  0.3760620555098585
  0.7085326028197778  0.7186124562115991  0.3755871855778909
  0.7084049224028033  0.8436240287273032  0.3758758253841649
  0.7084027171371556  0.9685956495852289  0.3758160717769081
  0.7084927041589862  0.0935480653576267  0.3760932005388868
  0.7085922502631105  0.2184135339934958  0.3762826050981251
  0.7087481998633488  0.3432684630737040  0.3736618989483602
  0.7092961393968434  0.4676170260439527  0.3744605707056614
  0.7090182910369889  0.5939784637020254  0.3774678297271316
  0.5835166683731775  0.6562836650878601  0.3749351002064382
  0.5833032284880321  0.7811551458967060  0.3756496633346496
  0.5834064486977556  0.9061849548586646  0.3759534728168052
  0.5834380598586476  0.0311038717441890  0.3758885423801910
  0.5835136062563626  0.1559736070731854  0.3765356434505316
  0.5836373806620339  0.2807688122019758  0.3751694457604019
  0.5837665422702714  0.4050018897586335  0.3686845281662048
  0.5833604384878501  0.5305268261232755  0.3758053383132823
  0.4582007945445686  0.7188878763386526  0.3752104304774110
  0.4583583193587863  0.8438267817930329  0.3759862076700078
  0.4584287275740015  0.9687459103049884  0.3758489210279787
  0.4584886370198356  0.0936028334604082  0.3760701021749825
  0.4585051076634026  0.2184431586441013  0.3765375471272821
  0.4586024132943288  0.3431391009648462  0.3730895328866338
  0.4587690147871715  0.4672166841487617  0.3682782524813457
  0.4582741914220467  0.5940135704413533  0.3764278305359356
  0.3331595472585929  0.6564267617874359  0.3734127853768571
  0.3333361187315544  0.7813588015868913  0.3756730408017436
  0.3333796378565572  0.9063119390225454  0.3760664521930595
  0.3334325137557319  0.0312247466061383  0.3757263258909189
  0.3334721688119981  0.1561715002016847  0.3761866476221130
  0.3335748109077263  0.2810624973843275  0.3764307825686582
  0.3334228702789067  0.4059167183732261  0.3734968493353240
  0.3319395992659010  0.5311415626147974  0.3712695499277657
  0.2082006733147696  0.7188377381471229  0.3753646415133687
  0.2083842789514426  0.8438254840061128  0.3760289271072660
  0.2084228551529535  0.9688011172985040  0.3758201609691069
  0.2084872598079280  0.0937070420575033  0.3757605265448836
  0.2085236926594525  0.2186830333715547  0.3761851508590259
  0.2083584850298882  0.3436559620793255  0.3763446830376288
  0.2080400958123181  0.4686382108596556  0.3745371411136337
  0.2080942083795657  0.5937662219644934  0.3741322242777120
  0.0833216357551950  0.6563091696820543  0.3760282660789164
  0.0833805564433204  0.7812958738139629  0.3759930446555317
  0.0834208815775227  0.9062790362251545  0.3758471161667045
  0.0834965430704546  0.0312310191357339  0.3757933426928657
  0.0835150402482071  0.1561771240428626  0.3757594409276240
  0.0835579245860078  0.2811485185222985  0.3760556100475140
  0.0833767830811873  0.4061183801798655  0.3761977986063395
  0.0832561273014404  0.5312274895120460  0.3760150103575256
  0.9584559200202842  0.7187982636285543  0.3758999682625890
  0.9584118584502134  0.8437369898695041  0.3758648480851697
  0.9584198501072524  0.9687057100814809  0.3757892285110234
  0.9584906897797771  0.0936622628769529  0.3758202391229025
  0.9585781681576243  0.2185820741585320  0.3759466775916143
  0.9586147375616568  0.3435350919083729  0.3760216795688719
  0.9585635193424389  0.4686024907904657  0.3759708924542864
  0.9584968109104204  0.5937215058176328  0.3761165633939270
  0.8336023456374666  0.6562207522485808  0.3760135068444161
  0.8334971980753946  0.7812348608875903  0.3758988620967296
  0.8333952371456392  0.9061444282853044  0.3758548281532267
  0.8334291639243347  0.0311206723256158  0.3757760296280960
  0.8335090927114081  0.1560577152898169  0.3760701692210410
  0.8337124934758299  0.2809621314572556  0.3760749461408206
  0.8338374203176219  0.4058318045096530  0.3751397830638633
  0.8336540113600033  0.5310443118965616  0.3761754402989790
  0.6037257111663583  0.5093606861929951  0.4821493965891682
  0.4454583822567525  0.5391116177982477  0.4797091165043083
  0.3630633008447708  0.4430801657147211  0.5303076612749573
  0.5853969098329747  0.5781578980638473  0.5911022724586595
  0.6165058420086845  0.3360037738098949  0.5566929673689471
  0.5042734283117278  0.4162785166014936  0.5586792502977975
  0.6369095352305645  0.4561849708910263  0.5959331631592674
  0.4494366269683710  0.5262578769355378  0.6033701855569188

  0.00000000E+00  0.00000000E+00  0.00000000E+00
  0.00000000E+00  0.00000000E+00  0.00000000E+00
  0.00000000E+00  0.00000000E+00  0.00000000E+00
  0.00000000E+00  0.00000000E+00  0.00000000E+00
  0.00000000E+00  0.00000000E+00  0.00000000E+00
  0.00000000E+00  0.00000000E+00  0.00000000E+00
  0.00000000E+00  0.00000000E+00  0.00000000E+00
  0.00000000E+00  0.00000000E+00  0.00000000E+00
  0.00000000E+00  0.00000000E+00  0.00000000E+00
  0.00000000E+00  0.00000000E+00  0.00000000E+00
  0.00000000E+00  0.00000000E+00  0.00000000E+00
  0.00000000E+00  0.00000000E+00  0.00000000E+00
  0.00000000E+00  0.00000000E+00  0.00000000E+00
  0.00000000E+00  0.00000000E+00  0.00000000E+00
  0.00000000E+00  0.00000000E+00  0.00000000E+00
  0.00000000E+00  0.00000000E+00  0.00000000E+00
  0.00000000E+00  0.00000000E+00  0.00000000E+00
  0.00000000E+00  0.00000000E+00  0.00000000E+00
  0.00000000E+00  0.00000000E+00  0.00000000E+00
  0.00000000E+00  0.00000000E+00  0.00000000E+00
  0.00000000E+00  0.00000000E+00  0.00000000E+00
  0.00000000E+00  0.00000000E+00  0.00000000E+00
  0.00000000E+00  0.00000000E+00  0.00000000E+00
  0.00000000E+00  0.00000000E+00  0.00000000E+00
  0.00000000E+00  0.00000000E+00  0.00000000E+00
  0.00000000E+00  0.00000000E+00  0.00000000E+00
  0.00000000E+00  0.00000000E+00  0.00000000E+00
  0.00000000E+00  0.00000000E+00  0.00000000E+00
  0.00000000E+00  0.00000000E+00  0.00000000E+00
  0.00000000E+00  0.00000000E+00  0.00000000E+00
  0.00000000E+00  0.00000000E+00  0.00000000E+00
  0.00000000E+00  0.00000000E+00  0.00000000E+00
  0.00000000E+00  0.00000000E+00  0.00000000E+00
  0.00000000E+00  0.00000000E+00  0.00000000E+00
  0.00000000E+00  0.00000000E+00  0.00000000E+00
  0.00000000E+00  0.00000000E+00  0.00000000E+00
  0.00000000E+00  0.00000000E+00  0.00000000E+00
  0.00000000E+00  0.00000000E+00  0.00000000E+00
  0.00000000E+00  0.00000000E+00  0.00000000E+00
  0.00000000E+00  0.00000000E+00  0.00000000E+00
  0.00000000E+00  0.00000000E+00  0.00000000E+00
  0.00000000E+00  0.00000000E+00  0.00000000E+00
  0.00000000E+00  0.00000000E+00  0.00000000E+00
  0.00000000E+00  0.00000000E+00  0.00000000E+00
  0.00000000E+00  0.00000000E+00  0.00000000E+00
  0.00000000E+00  0.00000000E+00  0.00000000E+00
  0.00000000E+00  0.00000000E+00  0.00000000E+00
  0.00000000E+00  0.00000000E+00  0.00000000E+00
  0.00000000E+00  0.00000000E+00  0.00000000E+00
  0.00000000E+00  0.00000000E+00  0.00000000E+00
  0.00000000E+00  0.00000000E+00  0.00000000E+00
  0.00000000E+00  0.00000000E+00  0.00000000E+00
  0.00000000E+00  0.00000000E+00  0.00000000E+00
  0.00000000E+00  0.00000000E+00  0.00000000E+00
  0.00000000E+00  0.00000000E+00  0.00000000E+00
  0.00000000E+00  0.00000000E+00  0.00000000E+00
  0.00000000E+00  0.00000000E+00  0.00000000E+00
  0.00000000E+00  0.00000000E+00  0.00000000E+00
  0.00000000E+00  0.00000000E+00  0.00000000E+00
  0.00000000E+00  0.00000000E+00  0.00000000E+00
  0.00000000E+00  0.00000000E+00  0.00000000E+00
  0.00000000E+00  0.00000000E+00  0.00000000E+00
  0.00000000E+00  0.00000000E+00  0.00000000E+00
  0.00000000E+00  0.00000000E+00  0.00000000E+00
  0.00000000E+00  0.00000000E+00  0.00000000E+00
  0.00000000E+00  0.00000000E+00  0.00000000E+00
  0.00000000E+00  0.00000000E+00  0.00000000E+00
  0.00000000E+00  0.00000000E+00  0.00000000E+00
  0.00000000E+00  0.00000000E+00  0.00000000E+00
  0.00000000E+00  0.00000000E+00  0.00000000E+00
  0.00000000E+00  0.00000000E+00  0.00000000E+00
  0.00000000E+00  0.00000000E+00  0.00000000E+00
  0.00000000E+00  0.00000000E+00  0.00000000E+00
  0.00000000E+00  0.00000000E+00  0.00000000E+00
  0.00000000E+00  0.00000000E+00  0.00000000E+00
  0.00000000E+00  0.00000000E+00  0.00000000E+00
  0.00000000E+00  0.00000000E+00  0.00000000E+00
  0.00000000E+00  0.00000000E+00  0.00000000E+00
  0.00000000E+00  0.00000000E+00  0.00000000E+00
  0.00000000E+00  0.00000000E+00  0.00000000E+00
  0.00000000E+00  0.00000000E+00  0.00000000E+00
  0.00000000E+00  0.00000000E+00  0.00000000E+00
  0.00000000E+00  0.00000000E+00  0.00000000E+00
  0.00000000E+00  0.00000000E+00  0.00000000E+00
  0.00000000E+00  0.00000000E+00  0.00000000E+00
  0.00000000E+00  0.00000000E+00  0.00000000E+00
  0.00000000E+00  0.00000000E+00  0.00000000E+00
  0.00000000E+00  0.00000000E+00  0.00000000E+00
  0.00000000E+00  0.00000000E+00  0.00000000E+00
  0.00000000E+00  0.00000000E+00  0.00000000E+00
  0.00000000E+00  0.00000000E+00  0.00000000E+00
  0.00000000E+00  0.00000000E+00  0.00000000E+00
  0.00000000E+00  0.00000000E+00  0.00000000E+00
  0.00000000E+00  0.00000000E+00  0.00000000E+00
  0.00000000E+00  0.00000000E+00  0.00000000E+00
  0.00000000E+00  0.00000000E+00  0.00000000E+00
  0.00000000E+00  0.00000000E+00  0.00000000E+00
  0.00000000E+00  0.00000000E+00  0.00000000E+00
  0.00000000E+00  0.00000000E+00  0.00000000E+00
  0.00000000E+00  0.00000000E+00  0.00000000E+00
  0.00000000E+00  0.00000000E+00  0.00000000E+00
  0.00000000E+00  0.00000000E+00  0.00000000E+00
  0.00000000E+00  0.00000000E+00  0.00000000E+00
  0.00000000E+00  0.00000000E+00  0.00000000E+00
  0.00000000E+00  0.00000000E+00  0.00000000E+00
  0.00000000E+00  0.00000000E+00  0.00000000E+00
  0.00000000E+00  0.00000000E+00  0.00000000E+00
  0.00000000E+00  0.00000000E+00  0.00000000E+00
  0.00000000E+00  0.00000000E+00  0.00000000E+00
  0.00000000E+00  0.00000000E+00  0.00000000E+00
  0.00000000E+00  0.00000000E+00  0.00000000E+00
  0.00000000E+00  0.00000000E+00  0.00000000E+00
  0.00000000E+00  0.00000000E+00  0.00000000E+00
  0.00000000E+00  0.00000000E+00  0.00000000E+00
  0.00000000E+00  0.00000000E+00  0.00000000E+00
  0.00000000E+00  0.00000000E+00  0.00000000E+00
  0.00000000E+00  0.00000000E+00  0.00000000E+00
  0.00000000E+00  0.00000000E+00  0.00000000E+00
  0.00000000E+00  0.00000000E+00  0.00000000E+00
  0.00000000E+00  0.00000000E+00  0.00000000E+00
  0.00000000E+00  0.00000000E+00  0.00000000E+00
  0.00000000E+00  0.00000000E+00  0.00000000E+00
  0.00000000E+00  0.00000000E+00  0.00000000E+00
  0.00000000E+00  0.00000000E+00  0.00000000E+00
  0.00000000E+00  0.00000000E+00  0.00000000E+00
  0.00000000E+00  0.00000000E+00  0.00000000E+00
  0.00000000E+00  0.00000000E+00  0.00000000E+00
  0.00000000E+00  0.00000000E+00  0.00000000E+00
  0.00000000E+00  0.00000000E+00  0.00000000E+00
  0.00000000E+00  0.00000000E+00  0.00000000E+00
  0.00000000E+00  0.00000000E+00  0.00000000E+00
  0.00000000E+00  0.00000000E+00  0.00000000E+00
  0.00000000E+00  0.00000000E+00  0.00000000E+00
  0.00000000E+00  0.00000000E+00  0.00000000E+00
  0.00000000E+00  0.00000000E+00  0.00000000E+00
  0.00000000E+00  0.00000000E+00  0.00000000E+00
