 C Pt                                   
   1.0000000000000000     
    17.0979999999999990    0.0000000000000000    0.0000000000000000
     0.0000000000000000   19.7420000000000009    0.0000000000000000
     0.0000000000000000    0.0000000000000000   20.0000000000000000
   C    Pt
   128     8
Direct
  0.0415313406276870  0.8443079757406370  0.3809751366565299
  0.0415194439390428  0.9692410903629005  0.3808840875304656
  0.0415698454764070  0.0942313113962050  0.3809580175542135
  0.0416175577439488  0.2192149405466819  0.3809372210845507
  0.0416009268180950  0.3442182751546923  0.3808240117502332
  0.0415334837471536  0.4692645095821322  0.3808873105119797
  0.0416300354888597  0.5943743135863588  0.3812738688341402
  0.0416431885234125  0.7193881916110074  0.3811140003589981
  0.9165645084880433  0.7818255731484085  0.3815883492173993
  0.9165704602979082  0.9067876529695178  0.3810006531154135
  0.9165405615437868  0.0317484742621311  0.3808226571557680
  0.9165853117658593  0.1566718249924617  0.3808214533572574
  0.9166719200336556  0.2816365016342367  0.3808102180913043
  0.9165052129920442  0.4066781098476810  0.3810994476193644
  0.9166837370630341  0.5318624967073823  0.3813566293516750
  0.9166945157530538  0.6569014531960219  0.3820053486049975
  0.7914976337435045  0.8444253538202716  0.3812453141141695
  0.7915340674516810  0.9692956851337923  0.3811004867405895
  0.7916021086633048  0.0942334644398407  0.3807399884516399
  0.7916089876698792  0.2191567502045763  0.3807263244429666
  0.7916517071967561  0.3439983462419329  0.3822177271543463
  0.7918192840099735  0.4692682966687710  0.3816762195577245
  0.7921957095187759  0.5944904193759750  0.3834549234988827
  0.7915887668022922  0.7195186730027736  0.3818404891279844
  0.6664423848224333  0.7822365131646433  0.3787612625851642
  0.6665092922508667  0.9069977049836477  0.3810310336686449
  0.6664820246028652  0.0318480687222792  0.3812037613247477
  0.6665562218155655  0.1567524212809342  0.3800586326076583
  0.6666443388600475  0.2816790794421862  0.3806948194874043
  0.6667840168074711  0.4066629118919263  0.3859335482715596
  0.6656134812993255  0.5319888104776423  0.3780803872760235
  0.6661039355109382  0.6580408541957252  0.3762990334554099
  0.5414961337511148  0.8445550385778406  0.3790249974574510
  0.5415142341541285  0.9694072783880124  0.3815536820839372
  0.5415488035209211  0.0943801578516544  0.3808657865424936
  0.5414937814359873  0.2193695725824314  0.3788551697480980
  0.5409439536125407  0.3439097202310175  0.3775344821682486
  0.5413121326669819  0.4699484965331646  0.3650621745323285
  0.5416460629851810  0.5949654066636777  0.3629136991495747
  0.5415921207608648  0.7198442171078641  0.3713552318867241
  0.4164807629334855  0.7821265691481487  0.3763016851971678
  0.4165294209220618  0.9069237971189508  0.3808033150152496
  0.4165086212114723  0.0318871039637111  0.3816862812934100
  0.4164976777280580  0.1567892596006432  0.3804103257797539
  0.4163990481685719  0.2817471861255003  0.3774806981157241
  0.4163990665436582  0.4068649712517692  0.3726368324519686
  0.4173430504286329  0.5319441309402749  0.3665360849795216
  0.4164296463415928  0.6575459111372967  0.3690693671790174
  0.2915195399152911  0.8445132952146425  0.3801973318321469
  0.2915031520232910  0.9693486682096287  0.3814782196606944
  0.2915245786098370  0.0942859078627966  0.3813449953963703
  0.2915141837093050  0.2192186829182411  0.3802720557535356
  0.2915430119155016  0.3441973754200370  0.3789797485255302
  0.2912948619963017  0.4689379119251725  0.3800181406314144
  0.2913992706267572  0.5950744585168436  0.3800776678236594
  0.2915900684934918  0.7197140487154638  0.3778977092536930
  0.1665329731337344  0.7818862920476564  0.3808675797609415
  0.1665512691324459  0.9068237459063795  0.3810933669911121
  0.1665380797835939  0.0317891665248968  0.3812342209018604
  0.1665316155483731  0.1567346230183594  0.3811647770215760
  0.1665669401137411  0.2817453655555178  0.3809692853401485
  0.1665674394122178  0.4067614660187714  0.3808896519477297
  0.1665150137593373  0.5318874942257154  0.3816440405711372
  0.1665298487594875  0.6569855817654864  0.3809789328102776
  0.9582186960159887  0.8443043669987211  0.3811061157498717
  0.9582150972627687  0.9692108557342018  0.3808315859570236
  0.9582373300116697  0.0942155622760270  0.3808464886560879
  0.9582773386061715  0.2191696199557019  0.3807862835986400
  0.9582630109985122  0.3441576913966832  0.3808305762886676
  0.9583437151168545  0.4692837613590069  0.3808784896335788
  0.9584038454347260  0.5943811217287877  0.3815584897284360
  0.9582508537288226  0.7194120065144618  0.3814940467099319
  0.8331998779840365  0.7818153835737057  0.3817380722592301
  0.8331457837258471  0.9068034568623113  0.3811520734962174
  0.8331919698676183  0.0317722043781194  0.3809052468518159
  0.8332832297662298  0.1566838595562768  0.3807096215726797
  0.8333575441866649  0.2815754129154496  0.3810802184318254
  0.8333614584901530  0.4066259046068395  0.3819198944745859
  0.8335154041222073  0.5320295505618853  0.3818959290566068
  0.8334351074417402  0.6570005885885942  0.3827474222135210
  0.7081896460870918  0.8445648175496697  0.3806251096848769
  0.7082168345776481  0.9693919221462965  0.3812837515544932
  0.7081670825077538  0.0943255629326093  0.3806642160183746
  0.7082162882431858  0.2192037968885017  0.3802519992808917
  0.7086187753147619  0.3435134726031829  0.3834268255480835
  0.7091095264939897  0.4692872335270121  0.3813025235785231
  0.7079427060122214  0.5951017567483657  0.3831216891649753
  0.7080822478892959  0.7198735087694117  0.3792308391274138
  0.5831979903453427  0.7821778247513347  0.3766581887667278
  0.5831441619683913  0.9069592699112289  0.3808991150456632
  0.5832036212171940  0.0318926085011093  0.3814239307908980
  0.5831799899734137  0.1568411758653878  0.3798953558699262
  0.5829381069930106  0.2819224439653022  0.3788671330083495
  0.5821812018867728  0.4075870379204402  0.3811636646920646
  0.5826284322264325  0.5319128759377707  0.3639345319027464
  0.5833025007540474  0.6577294758003847  0.3686097200387320
  0.4581610368869048  0.8445219818367522  0.3788685675139729
  0.4581815148663407  0.9693970596727872  0.3815853864774854
  0.4581506219398374  0.0943539732412412  0.3811342793691109
  0.4581191179190296  0.2193461696079179  0.3789723757029053
  0.4580135480462010  0.3442205263052484  0.3749446499887454
  0.4580904059712322  0.4694363785519430  0.3644322136924408
  0.4584114263629124  0.5950034733401236  0.3637110278593758
  0.4580244686750951  0.7197796488855706  0.3713731444199006
  0.3331913068500683  0.7820947901112797  0.3779958249519674
  0.3331659616522467  0.9069429551571122  0.3809639231058917
  0.3331982009031447  0.0318367586672513  0.3816215552171888
  0.3331660394977423  0.1567879676677882  0.3807601169957061
  0.3331128356325781  0.2817062356726759  0.3787139766679761
  0.3332700751363679  0.4066907389460653  0.3770426531882805
  0.3342483559094421  0.5320311896007146  0.3814532359487322
  0.3333232391909893  0.6574843193031641  0.3752701438250473
  0.2082028234975787  0.8444083098044327  0.3808248555644961
  0.2081746099753221  0.9693095229256194  0.3812694591528003
  0.2081714190469286  0.0942369129547995  0.3812665429470078
  0.2082031327436757  0.2192352534049899  0.3809432412106750
  0.2082692317223757  0.3442575527066257  0.3805839140042656
  0.2083825166742864  0.4693025341283650  0.3812294843557872
  0.2081837862555361  0.5945034147869640  0.3815040963957596
  0.2082185708695964  0.7195087453332524  0.3802889799194211
  0.0832440377215454  0.7818675886406932  0.3810656973959540
  0.0831817038847078  0.9067951703391464  0.3809664621522132
  0.0832003679227090  0.0317600701859177  0.3810058500002615
  0.0832362428795929  0.1566857251310178  0.3810539956831125
  0.0832626204553999  0.2817188439690247  0.3809958834994470
  0.0832836628092013  0.4067541898914716  0.3808833083604520
  0.0834177839304284  0.5318400229770809  0.3812629901764182
  0.0832585088830788  0.6568960759387286  0.3811634993455505
  0.6668148154561351  0.5618434964757665  0.4853553192858074
  0.6150662795901357  0.4326731890775433  0.4890474842706979
  0.5399221524923982  0.3676594478014940  0.5814095930349924
  0.5121075275211895  0.5754849630000453  0.5058398863685130
  0.5689466640018174  0.4942670146288540  0.5964114702238029
  0.6653080013438810  0.5850240808765361  0.6080398505383893
  0.3650377226752693  0.5467925001609829  0.4901184620828400
  0.4524246850716339  0.4524552112816706  0.5240894009934631

  0.00000000E+00  0.00000000E+00  0.00000000E+00
  0.00000000E+00  0.00000000E+00  0.00000000E+00
  0.00000000E+00  0.00000000E+00  0.00000000E+00
  0.00000000E+00  0.00000000E+00  0.00000000E+00
  0.00000000E+00  0.00000000E+00  0.00000000E+00
  0.00000000E+00  0.00000000E+00  0.00000000E+00
  0.00000000E+00  0.00000000E+00  0.00000000E+00
  0.00000000E+00  0.00000000E+00  0.00000000E+00
  0.00000000E+00  0.00000000E+00  0.00000000E+00
  0.00000000E+00  0.00000000E+00  0.00000000E+00
  0.00000000E+00  0.00000000E+00  0.00000000E+00
  0.00000000E+00  0.00000000E+00  0.00000000E+00
  0.00000000E+00  0.00000000E+00  0.00000000E+00
  0.00000000E+00  0.00000000E+00  0.00000000E+00
  0.00000000E+00  0.00000000E+00  0.00000000E+00
  0.00000000E+00  0.00000000E+00  0.00000000E+00
  0.00000000E+00  0.00000000E+00  0.00000000E+00
  0.00000000E+00  0.00000000E+00  0.00000000E+00
  0.00000000E+00  0.00000000E+00  0.00000000E+00
  0.00000000E+00  0.00000000E+00  0.00000000E+00
  0.00000000E+00  0.00000000E+00  0.00000000E+00
  0.00000000E+00  0.00000000E+00  0.00000000E+00
  0.00000000E+00  0.00000000E+00  0.00000000E+00
  0.00000000E+00  0.00000000E+00  0.00000000E+00
  0.00000000E+00  0.00000000E+00  0.00000000E+00
  0.00000000E+00  0.00000000E+00  0.00000000E+00
  0.00000000E+00  0.00000000E+00  0.00000000E+00
  0.00000000E+00  0.00000000E+00  0.00000000E+00
  0.00000000E+00  0.00000000E+00  0.00000000E+00
  0.00000000E+00  0.00000000E+00  0.00000000E+00
  0.00000000E+00  0.00000000E+00  0.00000000E+00
  0.00000000E+00  0.00000000E+00  0.00000000E+00
  0.00000000E+00  0.00000000E+00  0.00000000E+00
  0.00000000E+00  0.00000000E+00  0.00000000E+00
  0.00000000E+00  0.00000000E+00  0.00000000E+00
  0.00000000E+00  0.00000000E+00  0.00000000E+00
  0.00000000E+00  0.00000000E+00  0.00000000E+00
  0.00000000E+00  0.00000000E+00  0.00000000E+00
  0.00000000E+00  0.00000000E+00  0.00000000E+00
  0.00000000E+00  0.00000000E+00  0.00000000E+00
  0.00000000E+00  0.00000000E+00  0.00000000E+00
  0.00000000E+00  0.00000000E+00  0.00000000E+00
  0.00000000E+00  0.00000000E+00  0.00000000E+00
  0.00000000E+00  0.00000000E+00  0.00000000E+00
  0.00000000E+00  0.00000000E+00  0.00000000E+00
  0.00000000E+00  0.00000000E+00  0.00000000E+00
  0.00000000E+00  0.00000000E+00  0.00000000E+00
  0.00000000E+00  0.00000000E+00  0.00000000E+00
  0.00000000E+00  0.00000000E+00  0.00000000E+00
  0.00000000E+00  0.00000000E+00  0.00000000E+00
  0.00000000E+00  0.00000000E+00  0.00000000E+00
  0.00000000E+00  0.00000000E+00  0.00000000E+00
  0.00000000E+00  0.00000000E+00  0.00000000E+00
  0.00000000E+00  0.00000000E+00  0.00000000E+00
  0.00000000E+00  0.00000000E+00  0.00000000E+00
  0.00000000E+00  0.00000000E+00  0.00000000E+00
  0.00000000E+00  0.00000000E+00  0.00000000E+00
  0.00000000E+00  0.00000000E+00  0.00000000E+00
  0.00000000E+00  0.00000000E+00  0.00000000E+00
  0.00000000E+00  0.00000000E+00  0.00000000E+00
  0.00000000E+00  0.00000000E+00  0.00000000E+00
  0.00000000E+00  0.00000000E+00  0.00000000E+00
  0.00000000E+00  0.00000000E+00  0.00000000E+00
  0.00000000E+00  0.00000000E+00  0.00000000E+00
  0.00000000E+00  0.00000000E+00  0.00000000E+00
  0.00000000E+00  0.00000000E+00  0.00000000E+00
  0.00000000E+00  0.00000000E+00  0.00000000E+00
  0.00000000E+00  0.00000000E+00  0.00000000E+00
  0.00000000E+00  0.00000000E+00  0.00000000E+00
  0.00000000E+00  0.00000000E+00  0.00000000E+00
  0.00000000E+00  0.00000000E+00  0.00000000E+00
  0.00000000E+00  0.00000000E+00  0.00000000E+00
  0.00000000E+00  0.00000000E+00  0.00000000E+00
  0.00000000E+00  0.00000000E+00  0.00000000E+00
  0.00000000E+00  0.00000000E+00  0.00000000E+00
  0.00000000E+00  0.00000000E+00  0.00000000E+00
  0.00000000E+00  0.00000000E+00  0.00000000E+00
  0.00000000E+00  0.00000000E+00  0.00000000E+00
  0.00000000E+00  0.00000000E+00  0.00000000E+00
  0.00000000E+00  0.00000000E+00  0.00000000E+00
  0.00000000E+00  0.00000000E+00  0.00000000E+00
  0.00000000E+00  0.00000000E+00  0.00000000E+00
  0.00000000E+00  0.00000000E+00  0.00000000E+00
  0.00000000E+00  0.00000000E+00  0.00000000E+00
  0.00000000E+00  0.00000000E+00  0.00000000E+00
  0.00000000E+00  0.00000000E+00  0.00000000E+00
  0.00000000E+00  0.00000000E+00  0.00000000E+00
  0.00000000E+00  0.00000000E+00  0.00000000E+00
  0.00000000E+00  0.00000000E+00  0.00000000E+00
  0.00000000E+00  0.00000000E+00  0.00000000E+00
  0.00000000E+00  0.00000000E+00  0.00000000E+00
  0.00000000E+00  0.00000000E+00  0.00000000E+00
  0.00000000E+00  0.00000000E+00  0.00000000E+00
  0.00000000E+00  0.00000000E+00  0.00000000E+00
  0.00000000E+00  0.00000000E+00  0.00000000E+00
  0.00000000E+00  0.00000000E+00  0.00000000E+00
  0.00000000E+00  0.00000000E+00  0.00000000E+00
  0.00000000E+00  0.00000000E+00  0.00000000E+00
  0.00000000E+00  0.00000000E+00  0.00000000E+00
  0.00000000E+00  0.00000000E+00  0.00000000E+00
  0.00000000E+00  0.00000000E+00  0.00000000E+00
  0.00000000E+00  0.00000000E+00  0.00000000E+00
  0.00000000E+00  0.00000000E+00  0.00000000E+00
  0.00000000E+00  0.00000000E+00  0.00000000E+00
  0.00000000E+00  0.00000000E+00  0.00000000E+00
  0.00000000E+00  0.00000000E+00  0.00000000E+00
  0.00000000E+00  0.00000000E+00  0.00000000E+00
  0.00000000E+00  0.00000000E+00  0.00000000E+00
  0.00000000E+00  0.00000000E+00  0.00000000E+00
  0.00000000E+00  0.00000000E+00  0.00000000E+00
  0.00000000E+00  0.00000000E+00  0.00000000E+00
  0.00000000E+00  0.00000000E+00  0.00000000E+00
  0.00000000E+00  0.00000000E+00  0.00000000E+00
  0.00000000E+00  0.00000000E+00  0.00000000E+00
  0.00000000E+00  0.00000000E+00  0.00000000E+00
  0.00000000E+00  0.00000000E+00  0.00000000E+00
  0.00000000E+00  0.00000000E+00  0.00000000E+00
  0.00000000E+00  0.00000000E+00  0.00000000E+00
  0.00000000E+00  0.00000000E+00  0.00000000E+00
  0.00000000E+00  0.00000000E+00  0.00000000E+00
  0.00000000E+00  0.00000000E+00  0.00000000E+00
  0.00000000E+00  0.00000000E+00  0.00000000E+00
  0.00000000E+00  0.00000000E+00  0.00000000E+00
  0.00000000E+00  0.00000000E+00  0.00000000E+00
  0.00000000E+00  0.00000000E+00  0.00000000E+00
  0.00000000E+00  0.00000000E+00  0.00000000E+00
  0.00000000E+00  0.00000000E+00  0.00000000E+00
  0.00000000E+00  0.00000000E+00  0.00000000E+00
  0.00000000E+00  0.00000000E+00  0.00000000E+00
  0.00000000E+00  0.00000000E+00  0.00000000E+00
  0.00000000E+00  0.00000000E+00  0.00000000E+00
  0.00000000E+00  0.00000000E+00  0.00000000E+00
  0.00000000E+00  0.00000000E+00  0.00000000E+00
  0.00000000E+00  0.00000000E+00  0.00000000E+00
  0.00000000E+00  0.00000000E+00  0.00000000E+00
  0.00000000E+00  0.00000000E+00  0.00000000E+00
