 C Pt                                   
   1.0000000000000000     
    17.0979999999999990    0.0000000000000000    0.0000000000000000
     0.0000000000000000   19.7420000000000009    0.0000000000000000
     0.0000000000000000    0.0000000000000000   20.0000000000000000
   C    Pt
   128     8
Direct
  0.0416027202256173  0.8435426883376783  0.3794176535892911
  0.0414888559548367  0.9684902488709003  0.3793244856794832
  0.0414998986537083  0.0935081789169664  0.3794718711038309
  0.0415362969555272  0.2184717686635005  0.3793826222925480
  0.0414733526453801  0.3434506265129775  0.3789014182606963
  0.0416040122680337  0.4685199090772186  0.3784539850997080
  0.0416650583152702  0.5935966578732784  0.3789004549556420
  0.0416033711706934  0.7185868942736935  0.3794706949583437
  0.9165841040988266  0.7810363009676832  0.3789641819912939
  0.9166023030036617  0.9060497136918197  0.3795774321380430
  0.9165647557473042  0.0309592824015247  0.3796837390602241
  0.9165048063981003  0.1559359593953393  0.3792963108768150
  0.9165875701915280  0.2809469445556676  0.3782505561672218
  0.9166717323689995  0.4060114749910627  0.3772563839431499
  0.9167029731072704  0.5310800099829400  0.3770393288587903
  0.9166158531574521  0.6560389909546590  0.3781327242923853
  0.7915673139210075  0.8435307541452269  0.3785320859638613
  0.7915244900781503  0.9685296745192149  0.3795447971327796
  0.7915300174240296  0.0934456910296705  0.3797274442593190
  0.7915067108585030  0.2183501473699048  0.3787183694937284
  0.7914716264255154  0.3432422950719364  0.3777069725143008
  0.7925599093516636  0.4686124403374782  0.3760916739992197
  0.7917522833081183  0.5937249494955046  0.3756655867528073
  0.7916115395941882  0.7186563579169567  0.3766544691794825
  0.6666236742984225  0.7812268443456706  0.3758446025265637
  0.6665992672972890  0.9060925670010535  0.3788941218940491
  0.6665328099736630  0.0309564136685928  0.3797441237186349
  0.6664844573325638  0.1558382335612283  0.3794197799751987
  0.6664228781482150  0.2806374882021487  0.3783368688398611
  0.6656662534137872  0.4057280761678645  0.3792366247978871
  0.6658118337668684  0.5317668845113047  0.3693537423773043
  0.6665292579451825  0.6566532474519513  0.3713361174859895
  0.5416024155553893  0.8436344244712054  0.3786081290095633
  0.5415524090782504  0.9685796586470909  0.3795731164805723
  0.5415357696572271  0.0934500538483018  0.3797889239106818
  0.5414562008926389  0.2184865776774897  0.3789372793352088
  0.5408940257724912  0.3433529764142906  0.3754290394237653
  0.5407975173996808  0.4683673935986498  0.3685114725795172
  0.5423875076431691  0.5937944296152875  0.3698183360722858
  0.5416166243762593  0.7188921472555873  0.3752970657291869
  0.4166396349297929  0.7811598028360146  0.3805429605704579
  0.4165771686674292  0.9061400753226335  0.3798611727002023
  0.4165967421557125  0.0310277476340785  0.3794643365229511
  0.4164724368633949  0.1559613287229118  0.3794881357128050
  0.4162246510052488  0.2807555107015138  0.3781800735565629
  0.4161041606530642  0.4056875238475560  0.3751525714874077
  0.4159429216847289  0.5303795371553744  0.3761108561472742
  0.4164148241011695  0.6565536937075435  0.3810549368121941
  0.2916354315661434  0.8435293068288960  0.3806052687497669
  0.2915278934228825  0.9685102630322301  0.3792835490297367
  0.2915112837877454  0.0934847408512516  0.3793485866170486
  0.2914031747479668  0.2184476187124698  0.3796661104334735
  0.2912888422089958  0.3434368835840966  0.3791333784690080
  0.2912228049037628  0.4683503238587912  0.3782950013437266
  0.2911698741230291  0.5935320605070488  0.3798889029590510
  0.2915214112581200  0.7186389888932292  0.3818538338043806
  0.1665447146349288  0.7810819919302876  0.3801902444478159
  0.1665967579916152  0.9060254144413507  0.3793178712635910
  0.1666249727153349  0.0309850830724939  0.3791505597871605
  0.1664949578553779  0.1559843354395573  0.3796310315320200
  0.1664379140128449  0.2809872109108175  0.3799267127387436
  0.1663785813319481  0.4059611080743341  0.3794082558602296
  0.1664803484454824  0.5310042002496356  0.3792674194250549
  0.1665657838990119  0.6561089182676093  0.3802584699111627
  0.9582015168271871  0.8434795569016521  0.3794338628899465
  0.9582001303546797  0.9685225318305613  0.3796101037007497
  0.9581754175708896  0.0934710931583081  0.3795400690951565
  0.9581836357036980  0.2184844788000503  0.3789616937515665
  0.9582491579356377  0.3434476085170831  0.3780733509451496
  0.9583750763381514  0.4684708621869305  0.3774739212538626
  0.9584157095423053  0.5936628034506819  0.3779744494993716
  0.9582988895371167  0.7185086109945433  0.3788421205270063
  0.8332466866723969  0.7811089581736822  0.3782204606424726
  0.8332175524726928  0.9060001059264928  0.3793487514231463
  0.8332330841911946  0.0309290953031898  0.3797829180144618
  0.8332339751758941  0.1559106309312277  0.3792918636819698
  0.8331697162350580  0.2808791050383174  0.3780760612953925
  0.8333918720927339  0.4061089598544855  0.3768170187242193
  0.8336058300367705  0.5310911429341055  0.3759315956291149
  0.8332758657708746  0.6560200714233968  0.3770741370321311
  0.7082745501807162  0.8436228371565999  0.3778632946133280
  0.7082486470291377  0.9684945996104636  0.3794572819497671
  0.7081664073422393  0.0934182192849407  0.3797398688179043
  0.7081580132347550  0.2182418296595504  0.3788139707360675
  0.7084870586340895  0.3427033662019625  0.3784256623462932
  0.7080601113968830  0.4690916441647411  0.3778155475692337
  0.7081202621695074  0.5940420186111414  0.3723306031709973
  0.7082960707957909  0.7188814316320382  0.3744291015935842
  0.5832774674844868  0.7812604751308752  0.3764417492049571
  0.5832191643010294  0.9060235571110068  0.3790782513057604
  0.5832567840827489  0.0310209068626003  0.3797640136727112
  0.5832503242602799  0.1559276102323183  0.3795556419905815
  0.5829258685737789  0.2808587117037185  0.3778906343596576
  0.5816243263992011  0.4058154517840966  0.3731395108409400
  0.5830696764380733  0.5312239223971050  0.3663348363999565
  0.5835126619358348  0.6564357860078639  0.3711490553453144
  0.4583178240963858  0.8437352665562567  0.3797398533871356
  0.4582266237213940  0.9685530484853636  0.3795615440558918
  0.4581538602330779  0.0934353577170204  0.3796376705631471
  0.4580354581425946  0.2184093210736083  0.3789685986321717
  0.4576419066843957  0.3432313321911885  0.3759051166940605
  0.4578766866718442  0.4679768675103366  0.3720675151293934
  0.4585417816234759  0.5934470904865484  0.3769432043429756
  0.4584388686844837  0.7190527597052753  0.3790683031453512
  0.3332182194265039  0.7811524200468137  0.3814809888552116
  0.3332913327066674  0.9060446853367109  0.3799205190395649
  0.3332837897352662  0.0310271676736748  0.3792516088603952
  0.3331618233294676  0.1559592566315713  0.3794814028769241
  0.3329496573537138  0.2808373950237193  0.3791582001706593
  0.3329110617293888  0.4058271087440085  0.3777205293867357
  0.3326918516208225  0.5308149576241845  0.3782543272303973
  0.3328931322749387  0.6561460723399392  0.3816493000711376
  0.2082591235299095  0.8435291419787835  0.3800537320982583
  0.2081866660043073  0.9685437199710772  0.3791114219634781
  0.2081378631567771  0.0934720980157616  0.3793734309475630
  0.2080972694754166  0.2184259385758229  0.3798482237165192
  0.2080428449671668  0.3434613749544456  0.3797547525626143
  0.2079109723589758  0.4684420102452501  0.3791143882463774
  0.2081981425117784  0.5935089525209367  0.3798023900525795
  0.2081600053316861  0.7185689833092243  0.3808849864797704
  0.0832598170721582  0.7810170683294198  0.3796395772658757
  0.0832536263701442  0.9059914943992771  0.3792482412729613
  0.0832451024836938  0.0309749386741778  0.3792890842368493
  0.0831843709785179  0.1560134612946323  0.3795609698429768
  0.0831158635603673  0.2809474182679276  0.3795047538013035
  0.0832036132920145  0.4060180973549166  0.3790061300354506
  0.0832970862471092  0.5310027806930047  0.3789383070232099
  0.0832879667242659  0.6560627472139671  0.3796645833718699
  0.7038850709475062  0.5729144284989433  0.5172772001522120
  0.4702694988455160  0.5828806095180071  0.6121903035892836
  0.7099133088834830  0.6951972797994667  0.5425045890685105
  0.4579462163616126  0.5932869843827284  0.4873408406177728
  0.5598155497528499  0.5109615461153958  0.5408240380919656
  0.6829506610595969  0.4806489947597161  0.6051203553430791
  0.6787422844344051  0.4464065930359254  0.4843192474388464
  0.5779666645839291  0.6479115774192913  0.5501371632160428

  0.00000000E+00  0.00000000E+00  0.00000000E+00
  0.00000000E+00  0.00000000E+00  0.00000000E+00
  0.00000000E+00  0.00000000E+00  0.00000000E+00
  0.00000000E+00  0.00000000E+00  0.00000000E+00
  0.00000000E+00  0.00000000E+00  0.00000000E+00
  0.00000000E+00  0.00000000E+00  0.00000000E+00
  0.00000000E+00  0.00000000E+00  0.00000000E+00
  0.00000000E+00  0.00000000E+00  0.00000000E+00
  0.00000000E+00  0.00000000E+00  0.00000000E+00
  0.00000000E+00  0.00000000E+00  0.00000000E+00
  0.00000000E+00  0.00000000E+00  0.00000000E+00
  0.00000000E+00  0.00000000E+00  0.00000000E+00
  0.00000000E+00  0.00000000E+00  0.00000000E+00
  0.00000000E+00  0.00000000E+00  0.00000000E+00
  0.00000000E+00  0.00000000E+00  0.00000000E+00
  0.00000000E+00  0.00000000E+00  0.00000000E+00
  0.00000000E+00  0.00000000E+00  0.00000000E+00
  0.00000000E+00  0.00000000E+00  0.00000000E+00
  0.00000000E+00  0.00000000E+00  0.00000000E+00
  0.00000000E+00  0.00000000E+00  0.00000000E+00
  0.00000000E+00  0.00000000E+00  0.00000000E+00
  0.00000000E+00  0.00000000E+00  0.00000000E+00
  0.00000000E+00  0.00000000E+00  0.00000000E+00
  0.00000000E+00  0.00000000E+00  0.00000000E+00
  0.00000000E+00  0.00000000E+00  0.00000000E+00
  0.00000000E+00  0.00000000E+00  0.00000000E+00
  0.00000000E+00  0.00000000E+00  0.00000000E+00
  0.00000000E+00  0.00000000E+00  0.00000000E+00
  0.00000000E+00  0.00000000E+00  0.00000000E+00
  0.00000000E+00  0.00000000E+00  0.00000000E+00
  0.00000000E+00  0.00000000E+00  0.00000000E+00
  0.00000000E+00  0.00000000E+00  0.00000000E+00
  0.00000000E+00  0.00000000E+00  0.00000000E+00
  0.00000000E+00  0.00000000E+00  0.00000000E+00
  0.00000000E+00  0.00000000E+00  0.00000000E+00
  0.00000000E+00  0.00000000E+00  0.00000000E+00
  0.00000000E+00  0.00000000E+00  0.00000000E+00
  0.00000000E+00  0.00000000E+00  0.00000000E+00
  0.00000000E+00  0.00000000E+00  0.00000000E+00
  0.00000000E+00  0.00000000E+00  0.00000000E+00
  0.00000000E+00  0.00000000E+00  0.00000000E+00
  0.00000000E+00  0.00000000E+00  0.00000000E+00
  0.00000000E+00  0.00000000E+00  0.00000000E+00
  0.00000000E+00  0.00000000E+00  0.00000000E+00
  0.00000000E+00  0.00000000E+00  0.00000000E+00
  0.00000000E+00  0.00000000E+00  0.00000000E+00
  0.00000000E+00  0.00000000E+00  0.00000000E+00
  0.00000000E+00  0.00000000E+00  0.00000000E+00
  0.00000000E+00  0.00000000E+00  0.00000000E+00
  0.00000000E+00  0.00000000E+00  0.00000000E+00
  0.00000000E+00  0.00000000E+00  0.00000000E+00
  0.00000000E+00  0.00000000E+00  0.00000000E+00
  0.00000000E+00  0.00000000E+00  0.00000000E+00
  0.00000000E+00  0.00000000E+00  0.00000000E+00
  0.00000000E+00  0.00000000E+00  0.00000000E+00
  0.00000000E+00  0.00000000E+00  0.00000000E+00
  0.00000000E+00  0.00000000E+00  0.00000000E+00
  0.00000000E+00  0.00000000E+00  0.00000000E+00
  0.00000000E+00  0.00000000E+00  0.00000000E+00
  0.00000000E+00  0.00000000E+00  0.00000000E+00
  0.00000000E+00  0.00000000E+00  0.00000000E+00
  0.00000000E+00  0.00000000E+00  0.00000000E+00
  0.00000000E+00  0.00000000E+00  0.00000000E+00
  0.00000000E+00  0.00000000E+00  0.00000000E+00
  0.00000000E+00  0.00000000E+00  0.00000000E+00
  0.00000000E+00  0.00000000E+00  0.00000000E+00
  0.00000000E+00  0.00000000E+00  0.00000000E+00
  0.00000000E+00  0.00000000E+00  0.00000000E+00
  0.00000000E+00  0.00000000E+00  0.00000000E+00
  0.00000000E+00  0.00000000E+00  0.00000000E+00
  0.00000000E+00  0.00000000E+00  0.00000000E+00
  0.00000000E+00  0.00000000E+00  0.00000000E+00
  0.00000000E+00  0.00000000E+00  0.00000000E+00
  0.00000000E+00  0.00000000E+00  0.00000000E+00
  0.00000000E+00  0.00000000E+00  0.00000000E+00
  0.00000000E+00  0.00000000E+00  0.00000000E+00
  0.00000000E+00  0.00000000E+00  0.00000000E+00
  0.00000000E+00  0.00000000E+00  0.00000000E+00
  0.00000000E+00  0.00000000E+00  0.00000000E+00
  0.00000000E+00  0.00000000E+00  0.00000000E+00
  0.00000000E+00  0.00000000E+00  0.00000000E+00
  0.00000000E+00  0.00000000E+00  0.00000000E+00
  0.00000000E+00  0.00000000E+00  0.00000000E+00
  0.00000000E+00  0.00000000E+00  0.00000000E+00
  0.00000000E+00  0.00000000E+00  0.00000000E+00
  0.00000000E+00  0.00000000E+00  0.00000000E+00
  0.00000000E+00  0.00000000E+00  0.00000000E+00
  0.00000000E+00  0.00000000E+00  0.00000000E+00
  0.00000000E+00  0.00000000E+00  0.00000000E+00
  0.00000000E+00  0.00000000E+00  0.00000000E+00
  0.00000000E+00  0.00000000E+00  0.00000000E+00
  0.00000000E+00  0.00000000E+00  0.00000000E+00
  0.00000000E+00  0.00000000E+00  0.00000000E+00
  0.00000000E+00  0.00000000E+00  0.00000000E+00
  0.00000000E+00  0.00000000E+00  0.00000000E+00
  0.00000000E+00  0.00000000E+00  0.00000000E+00
  0.00000000E+00  0.00000000E+00  0.00000000E+00
  0.00000000E+00  0.00000000E+00  0.00000000E+00
  0.00000000E+00  0.00000000E+00  0.00000000E+00
  0.00000000E+00  0.00000000E+00  0.00000000E+00
  0.00000000E+00  0.00000000E+00  0.00000000E+00
  0.00000000E+00  0.00000000E+00  0.00000000E+00
  0.00000000E+00  0.00000000E+00  0.00000000E+00
  0.00000000E+00  0.00000000E+00  0.00000000E+00
  0.00000000E+00  0.00000000E+00  0.00000000E+00
  0.00000000E+00  0.00000000E+00  0.00000000E+00
  0.00000000E+00  0.00000000E+00  0.00000000E+00
  0.00000000E+00  0.00000000E+00  0.00000000E+00
  0.00000000E+00  0.00000000E+00  0.00000000E+00
  0.00000000E+00  0.00000000E+00  0.00000000E+00
  0.00000000E+00  0.00000000E+00  0.00000000E+00
  0.00000000E+00  0.00000000E+00  0.00000000E+00
  0.00000000E+00  0.00000000E+00  0.00000000E+00
  0.00000000E+00  0.00000000E+00  0.00000000E+00
  0.00000000E+00  0.00000000E+00  0.00000000E+00
  0.00000000E+00  0.00000000E+00  0.00000000E+00
  0.00000000E+00  0.00000000E+00  0.00000000E+00
  0.00000000E+00  0.00000000E+00  0.00000000E+00
  0.00000000E+00  0.00000000E+00  0.00000000E+00
  0.00000000E+00  0.00000000E+00  0.00000000E+00
  0.00000000E+00  0.00000000E+00  0.00000000E+00
  0.00000000E+00  0.00000000E+00  0.00000000E+00
  0.00000000E+00  0.00000000E+00  0.00000000E+00
  0.00000000E+00  0.00000000E+00  0.00000000E+00
  0.00000000E+00  0.00000000E+00  0.00000000E+00
  0.00000000E+00  0.00000000E+00  0.00000000E+00
  0.00000000E+00  0.00000000E+00  0.00000000E+00
  0.00000000E+00  0.00000000E+00  0.00000000E+00
  0.00000000E+00  0.00000000E+00  0.00000000E+00
  0.00000000E+00  0.00000000E+00  0.00000000E+00
  0.00000000E+00  0.00000000E+00  0.00000000E+00
  0.00000000E+00  0.00000000E+00  0.00000000E+00
  0.00000000E+00  0.00000000E+00  0.00000000E+00
  0.00000000E+00  0.00000000E+00  0.00000000E+00
  0.00000000E+00  0.00000000E+00  0.00000000E+00
  0.00000000E+00  0.00000000E+00  0.00000000E+00
