 C Pt                                   
   1.0000000000000000     
    17.0979999999999990    0.0000000000000000    0.0000000000000000
     0.0000000000000000   19.7420000000000009    0.0000000000000000
     0.0000000000000000    0.0000000000000000   20.0000000000000000
   C    Pt
   128    10
Direct
  0.6683628140883980  0.3432312964338529  0.3786893671689673
  0.6687187182112982  0.4686153243222663  0.3795782419922127
  0.6668767220015719  0.5937165040520531  0.3736284996042435
  0.6664757053082759  0.7196255155150143  0.3730280876585396
  0.6667985373774893  0.8439918697233690  0.3750703285902886
  0.6669753174915933  0.9687179489589572  0.3771123619638894
  0.6670148696731839  0.0935370546665990  0.3775729411552252
  0.6672510908581690  0.2182843355855229  0.3776907090440346
  0.5417450441118026  0.2802678895340463  0.3793170126480605
  0.5410614804806736  0.4061980631457792  0.3853224499068105
  0.5422165416184619  0.5320693591240748  0.3694572329193188
  0.5413225594312313  0.6568430317392192  0.3648803124715957
  0.5417629843068975  0.7815747558487113  0.3704464340076074
  0.5419662225345795  0.9062742583558362  0.3758744287364026
  0.5419841989655475  0.0310793290284432  0.3776144007174230
  0.5420289529407623  0.1558747770744953  0.3776797623375588
  0.4163685425947413  0.3433066427800645  0.3744006317705806
  0.4159679175291227  0.4675978913883333  0.3720945295897292
  0.4161915000350593  0.5942374219873480  0.3733673927493458
  0.4165399601779398  0.7192319361512566  0.3701630908703733
  0.4167631507141188  0.8438715227725839  0.3743563594409795
  0.4169861853161922  0.9687110653734512  0.3772991364246902
  0.4169840739517373  0.0934810893477792  0.3776781732571777
  0.4168217835233360  0.2183592295293011  0.3767232754342520
  0.2917216292594694  0.2808195362798069  0.3750224627969496
  0.2915319495016896  0.4057995780153987  0.3721111120947785
  0.2910791588004322  0.5310101113954249  0.3703387029689642
  0.2913364189520758  0.6563724167804433  0.3721965231606006
  0.2918015447054098  0.7812484560741384  0.3750218683029510
  0.2919225367398637  0.9061842698334425  0.3772511700051881
  0.2920079165415777  0.0310107197090729  0.3776764597152417
  0.2919983375310196  0.1559733654485974  0.3769161553518812
  0.1669039449671712  0.3433849802440043  0.3752195357877551
  0.1666072191586013  0.4684188166143070  0.3733919914168744
  0.1666261454023167  0.5936485031840497  0.3737260233657736
  0.1667426115140985  0.7188113310031609  0.3756522060771652
  0.1669113467827036  0.8436571339602417  0.3773208309056124
  0.1670347303549406  0.9685372662019414  0.3776152450066940
  0.1669361899308948  0.0934630892518813  0.3773579803367945
  0.1670268992725682  0.2184020355360738  0.3766730744918278
  0.0420978922844361  0.2808464881675784  0.3768473147301043
  0.0419908620710860  0.4059260055520775  0.3758107542614570
  0.0419745803500404  0.5311063906640919  0.3750759939893964
  0.0420452516359999  0.6562506237791812  0.3761790498847652
  0.0420098972277174  0.7812125873101923  0.3772205501917389
  0.0419833092625143  0.9061042390717452  0.3775010738868819
  0.0420261714637419  0.0310216454022893  0.3773059595527979
  0.0421209670933496  0.1559418856563762  0.3772435183152788
  0.9174639167723514  0.3433782683332012  0.3757966056321657
  0.9173445953056732  0.4684882712098605  0.3745419440956999
  0.9174357560691377  0.5938291821475166  0.3749264825619628
  0.9172330048270331  0.7188204740238252  0.3770051588547483
  0.9170154341009844  0.8436530844119554  0.3775751369525812
  0.9170386697323224  0.9686135239532550  0.3772724597805447
  0.9171043240335405  0.0934841184675184  0.3771746535303711
  0.9172912356428925  0.2183611948058793  0.3768574174944980
  0.7925079147006441  0.2808364406808543  0.3763280292417802
  0.7928285404849379  0.4057405099205358  0.3746208456194799
  0.7929124382514635  0.5312320883940592  0.3725978146948468
  0.7928080982793853  0.6563729748515161  0.3768008286885469
  0.7919615118721499  0.7813206838935431  0.3770206869898849
  0.7919075312905657  0.9062507565451816  0.3772221394677797
  0.7919952484502448  0.0310487102053999  0.3772683506553022
  0.7921810044695147  0.1559514239364225  0.3771748807008667
  0.5840018530101921  0.3431619535358942  0.3837182168189971
  0.5843185590774417  0.4702900137472739  0.3823559732258231
  0.5827070209086908  0.5938909403610261  0.3655526955725070
  0.5832917871182594  0.7193568003707003  0.3678452570078805
  0.5835832390897751  0.8439183402070266  0.3739499681031692
  0.5836327856255875  0.9686984739131381  0.3770824596782881
  0.5837571017074267  0.0934610197631114  0.3776831158222910
  0.5838144010864103  0.2181660694358623  0.3780344475545903
  0.4583794999320559  0.2807049928040799  0.3768599796038257
  0.4573857992716864  0.4058461938761825  0.3754570514262919
  0.4585149198863344  0.5309585792956315  0.3742463218110229
  0.4585200839525634  0.6571399018612665  0.3682234503735951
  0.4583001684235754  0.7815336104648060  0.3710877659656422
  0.4585802989090941  0.9062956563331604  0.3759794616343177
  0.4586436753288189  0.0310953289792187  0.3777214320726465
  0.4586170936245992  0.1559135595883965  0.3775482814060129
  0.3332787392634499  0.3433221777478885  0.3732916905199257
  0.3328611098557367  0.4681386423729472  0.3702925937862423
  0.3321620956829324  0.5938203761758122  0.3713887690827238
  0.3333005114777143  0.7188737497970937  0.3725364432989829
  0.3335121748261579  0.8437828881085002  0.3757786094540840
  0.3336085113008281  0.9685834772670079  0.3775333069269074
  0.3336553701714006  0.0934753285387404  0.3775287610103871
  0.3335071597134086  0.2184282371488424  0.3761600097013035
  0.2085898097652933  0.2808375120677686  0.3756999385379989
  0.2083496877738385  0.4058858143700266  0.3733933621227004
  0.2082706348917543  0.5310358656889795  0.3720225227751723
  0.2082158727493268  0.6562230739786283  0.3737749136963279
  0.2084312151336565  0.7812542696811382  0.3762504647292078
  0.2086685533225413  0.9060963582708202  0.3776048094360379
  0.2087139438419750  0.0309803074305970  0.3775123097147453
  0.2086676201030599  0.1559765718289864  0.3770324906150864
  0.0836658664622544  0.3433969777957900  0.3762432175555882
  0.0835452662414615  0.4684648656795679  0.3749614416809159
  0.0834940101909147  0.5936937858367271  0.3751897755898023
  0.0835660854627063  0.7187834668601564  0.3765716024045748
  0.0836301833772653  0.8436073212615142  0.3774652663530214
  0.0836544996015258  0.9685615718269308  0.3774393039305048
  0.0836663307584402  0.0934784927111369  0.3772752907337877
  0.0837201763233048  0.2183654699716615  0.3770265071769431
  0.9589279032651080  0.2808682602884697  0.3766168066698093
  0.9588766811864691  0.4058805044267476  0.3755485124360083
  0.9589851383160976  0.5311372050670411  0.3748183718147703
  0.9589173382260431  0.6563371914304245  0.3763195271668827
  0.9587409854929055  0.7812834420441230  0.3773280757085826
  0.9586597255361837  0.9061592448824299  0.3774697442343054
  0.9586974519773270  0.0309989353219311  0.3772370541024955
  0.9588307517272459  0.1558798578483351  0.3771280090218944
  0.8343208738458285  0.3431793982883768  0.3754147775985979
  0.8344370603983087  0.4685362919098510  0.3736449753986978
  0.8343259810785749  0.5940097494288211  0.3741344874957762
  0.8339395757808092  0.7188805712319956  0.3771539335108372
  0.8335972360362324  0.8436584032263614  0.3774595025569771
  0.8336571470911525  0.9686520355592229  0.3772773004300078
  0.8337939073459893  0.0935271184833424  0.3772246379730766
  0.8340063757438527  0.2183169157038802  0.3767268155389654
  0.7092993118220310  0.2807261013020698  0.3773041758537181
  0.7101399195864316  0.4051442190932054  0.3767381471678495
  0.7104340376855068  0.5312527207257728  0.3730082189744017
  0.7086864820909056  0.6568301517312058  0.3778407641663901
  0.7084905066073854  0.7815250627610004  0.3750689540956910
  0.7085979195070029  0.9063281823642753  0.3766713198722544
  0.7086695382733943  0.0311174746964794  0.3773966012032174
  0.7087248008879966  0.1560509912916156  0.3774375089507832
  0.6715927050900848  0.6171724882865539  0.4826414436993763
  0.6315822752003177  0.4874322404028589  0.4850224581869825
  0.4246319190087317  0.5571337710838218  0.4801824965185368
  0.4757430896967258  0.4572274539963812  0.5524116650193898
  0.6066951814363274  0.5073304336724078  0.6086942385517736
  0.5728898490498362  0.3807771915186499  0.6165586738539826
  0.6665764293724569  0.6243389948335949  0.6089364136166292
  0.5362494103225655  0.6099148803831803  0.5468769550952391
  0.5638931249500955  0.3706637252874731  0.4911224503406212
  0.4137815389902568  0.5625046829816471  0.6053235127480542

  0.00000000E+00  0.00000000E+00  0.00000000E+00
  0.00000000E+00  0.00000000E+00  0.00000000E+00
  0.00000000E+00  0.00000000E+00  0.00000000E+00
  0.00000000E+00  0.00000000E+00  0.00000000E+00
  0.00000000E+00  0.00000000E+00  0.00000000E+00
  0.00000000E+00  0.00000000E+00  0.00000000E+00
  0.00000000E+00  0.00000000E+00  0.00000000E+00
  0.00000000E+00  0.00000000E+00  0.00000000E+00
  0.00000000E+00  0.00000000E+00  0.00000000E+00
  0.00000000E+00  0.00000000E+00  0.00000000E+00
  0.00000000E+00  0.00000000E+00  0.00000000E+00
  0.00000000E+00  0.00000000E+00  0.00000000E+00
  0.00000000E+00  0.00000000E+00  0.00000000E+00
  0.00000000E+00  0.00000000E+00  0.00000000E+00
  0.00000000E+00  0.00000000E+00  0.00000000E+00
  0.00000000E+00  0.00000000E+00  0.00000000E+00
  0.00000000E+00  0.00000000E+00  0.00000000E+00
  0.00000000E+00  0.00000000E+00  0.00000000E+00
  0.00000000E+00  0.00000000E+00  0.00000000E+00
  0.00000000E+00  0.00000000E+00  0.00000000E+00
  0.00000000E+00  0.00000000E+00  0.00000000E+00
  0.00000000E+00  0.00000000E+00  0.00000000E+00
  0.00000000E+00  0.00000000E+00  0.00000000E+00
  0.00000000E+00  0.00000000E+00  0.00000000E+00
  0.00000000E+00  0.00000000E+00  0.00000000E+00
  0.00000000E+00  0.00000000E+00  0.00000000E+00
  0.00000000E+00  0.00000000E+00  0.00000000E+00
  0.00000000E+00  0.00000000E+00  0.00000000E+00
  0.00000000E+00  0.00000000E+00  0.00000000E+00
  0.00000000E+00  0.00000000E+00  0.00000000E+00
  0.00000000E+00  0.00000000E+00  0.00000000E+00
  0.00000000E+00  0.00000000E+00  0.00000000E+00
  0.00000000E+00  0.00000000E+00  0.00000000E+00
  0.00000000E+00  0.00000000E+00  0.00000000E+00
  0.00000000E+00  0.00000000E+00  0.00000000E+00
  0.00000000E+00  0.00000000E+00  0.00000000E+00
  0.00000000E+00  0.00000000E+00  0.00000000E+00
  0.00000000E+00  0.00000000E+00  0.00000000E+00
  0.00000000E+00  0.00000000E+00  0.00000000E+00
  0.00000000E+00  0.00000000E+00  0.00000000E+00
  0.00000000E+00  0.00000000E+00  0.00000000E+00
  0.00000000E+00  0.00000000E+00  0.00000000E+00
  0.00000000E+00  0.00000000E+00  0.00000000E+00
  0.00000000E+00  0.00000000E+00  0.00000000E+00
  0.00000000E+00  0.00000000E+00  0.00000000E+00
  0.00000000E+00  0.00000000E+00  0.00000000E+00
  0.00000000E+00  0.00000000E+00  0.00000000E+00
  0.00000000E+00  0.00000000E+00  0.00000000E+00
  0.00000000E+00  0.00000000E+00  0.00000000E+00
  0.00000000E+00  0.00000000E+00  0.00000000E+00
  0.00000000E+00  0.00000000E+00  0.00000000E+00
  0.00000000E+00  0.00000000E+00  0.00000000E+00
  0.00000000E+00  0.00000000E+00  0.00000000E+00
  0.00000000E+00  0.00000000E+00  0.00000000E+00
  0.00000000E+00  0.00000000E+00  0.00000000E+00
  0.00000000E+00  0.00000000E+00  0.00000000E+00
  0.00000000E+00  0.00000000E+00  0.00000000E+00
  0.00000000E+00  0.00000000E+00  0.00000000E+00
  0.00000000E+00  0.00000000E+00  0.00000000E+00
  0.00000000E+00  0.00000000E+00  0.00000000E+00
  0.00000000E+00  0.00000000E+00  0.00000000E+00
  0.00000000E+00  0.00000000E+00  0.00000000E+00
  0.00000000E+00  0.00000000E+00  0.00000000E+00
  0.00000000E+00  0.00000000E+00  0.00000000E+00
  0.00000000E+00  0.00000000E+00  0.00000000E+00
  0.00000000E+00  0.00000000E+00  0.00000000E+00
  0.00000000E+00  0.00000000E+00  0.00000000E+00
  0.00000000E+00  0.00000000E+00  0.00000000E+00
  0.00000000E+00  0.00000000E+00  0.00000000E+00
  0.00000000E+00  0.00000000E+00  0.00000000E+00
  0.00000000E+00  0.00000000E+00  0.00000000E+00
  0.00000000E+00  0.00000000E+00  0.00000000E+00
  0.00000000E+00  0.00000000E+00  0.00000000E+00
  0.00000000E+00  0.00000000E+00  0.00000000E+00
  0.00000000E+00  0.00000000E+00  0.00000000E+00
  0.00000000E+00  0.00000000E+00  0.00000000E+00
  0.00000000E+00  0.00000000E+00  0.00000000E+00
  0.00000000E+00  0.00000000E+00  0.00000000E+00
  0.00000000E+00  0.00000000E+00  0.00000000E+00
  0.00000000E+00  0.00000000E+00  0.00000000E+00
  0.00000000E+00  0.00000000E+00  0.00000000E+00
  0.00000000E+00  0.00000000E+00  0.00000000E+00
  0.00000000E+00  0.00000000E+00  0.00000000E+00
  0.00000000E+00  0.00000000E+00  0.00000000E+00
  0.00000000E+00  0.00000000E+00  0.00000000E+00
  0.00000000E+00  0.00000000E+00  0.00000000E+00
  0.00000000E+00  0.00000000E+00  0.00000000E+00
  0.00000000E+00  0.00000000E+00  0.00000000E+00
  0.00000000E+00  0.00000000E+00  0.00000000E+00
  0.00000000E+00  0.00000000E+00  0.00000000E+00
  0.00000000E+00  0.00000000E+00  0.00000000E+00
  0.00000000E+00  0.00000000E+00  0.00000000E+00
  0.00000000E+00  0.00000000E+00  0.00000000E+00
  0.00000000E+00  0.00000000E+00  0.00000000E+00
  0.00000000E+00  0.00000000E+00  0.00000000E+00
  0.00000000E+00  0.00000000E+00  0.00000000E+00
  0.00000000E+00  0.00000000E+00  0.00000000E+00
  0.00000000E+00  0.00000000E+00  0.00000000E+00
  0.00000000E+00  0.00000000E+00  0.00000000E+00
  0.00000000E+00  0.00000000E+00  0.00000000E+00
  0.00000000E+00  0.00000000E+00  0.00000000E+00
  0.00000000E+00  0.00000000E+00  0.00000000E+00
  0.00000000E+00  0.00000000E+00  0.00000000E+00
  0.00000000E+00  0.00000000E+00  0.00000000E+00
  0.00000000E+00  0.00000000E+00  0.00000000E+00
  0.00000000E+00  0.00000000E+00  0.00000000E+00
  0.00000000E+00  0.00000000E+00  0.00000000E+00
  0.00000000E+00  0.00000000E+00  0.00000000E+00
  0.00000000E+00  0.00000000E+00  0.00000000E+00
  0.00000000E+00  0.00000000E+00  0.00000000E+00
  0.00000000E+00  0.00000000E+00  0.00000000E+00
  0.00000000E+00  0.00000000E+00  0.00000000E+00
  0.00000000E+00  0.00000000E+00  0.00000000E+00
  0.00000000E+00  0.00000000E+00  0.00000000E+00
  0.00000000E+00  0.00000000E+00  0.00000000E+00
  0.00000000E+00  0.00000000E+00  0.00000000E+00
  0.00000000E+00  0.00000000E+00  0.00000000E+00
  0.00000000E+00  0.00000000E+00  0.00000000E+00
  0.00000000E+00  0.00000000E+00  0.00000000E+00
  0.00000000E+00  0.00000000E+00  0.00000000E+00
  0.00000000E+00  0.00000000E+00  0.00000000E+00
  0.00000000E+00  0.00000000E+00  0.00000000E+00
  0.00000000E+00  0.00000000E+00  0.00000000E+00
  0.00000000E+00  0.00000000E+00  0.00000000E+00
  0.00000000E+00  0.00000000E+00  0.00000000E+00
  0.00000000E+00  0.00000000E+00  0.00000000E+00
  0.00000000E+00  0.00000000E+00  0.00000000E+00
  0.00000000E+00  0.00000000E+00  0.00000000E+00
  0.00000000E+00  0.00000000E+00  0.00000000E+00
  0.00000000E+00  0.00000000E+00  0.00000000E+00
  0.00000000E+00  0.00000000E+00  0.00000000E+00
  0.00000000E+00  0.00000000E+00  0.00000000E+00
  0.00000000E+00  0.00000000E+00  0.00000000E+00
  0.00000000E+00  0.00000000E+00  0.00000000E+00
  0.00000000E+00  0.00000000E+00  0.00000000E+00
  0.00000000E+00  0.00000000E+00  0.00000000E+00
  0.00000000E+00  0.00000000E+00  0.00000000E+00
  0.00000000E+00  0.00000000E+00  0.00000000E+00
