 C Pt                                   
   1.0000000000000000     
    17.0979999999999990    0.0000000000000000    0.0000000000000000
     0.0000000000000000   19.7420000000000009    0.0000000000000000
     0.0000000000000000    0.0000000000000000   20.0000000000000000
   C    Pt
   128    10
Direct
  0.6671849920516963  0.3436979608381434  0.3688242403408767
  0.6673453839582847  0.4693869396131974  0.3707073595762393
  0.6680446421039373  0.5952836099218732  0.3764629052905423
  0.6673220500910944  0.7200923109428060  0.3686003960258214
  0.6670149045953951  0.8447742000607152  0.3690862650584142
  0.6669397064237130  0.9694621697705276  0.3709941224617318
  0.6668859451754617  0.0943149742364239  0.3713488420596494
  0.6669475190036678  0.2191773865787570  0.3697464844941739
  0.5420105638932142  0.2815787052393156  0.3665331462115001
  0.5430056460304258  0.4065294504892680  0.3645116948575988
  0.5426472698673209  0.5312822769789526  0.3656963606934978
  0.5415343474181911  0.6581682340423157  0.3667194768135241
  0.5419811761892180  0.7823260571534982  0.3666544575009101
  0.5420471920707506  0.9070562579718159  0.3700941463895075
  0.5419075094720643  0.0318460518208814  0.3716931892787691
  0.5418353400928144  0.1566622604437612  0.3705790548255273
  0.4162755474709205  0.3428346705225864  0.3665942926958927
  0.4161447838557004  0.4681662006140593  0.3764562761934306
  0.4167660295103353  0.5951036495002219  0.3756946678619071
  0.4168433443880789  0.7199052971190694  0.3676270103581024
  0.4169445121550489  0.8446742445267954  0.3696231221360097
  0.4169236574663888  0.9693473172053937  0.3714362881630111
  0.4168727989295216  0.0941187451345215  0.3715120686725742
  0.4168213552437803  0.2188133801186830  0.3685496144697458
  0.2917051698617680  0.2813979907450133  0.3687679706848227
  0.2913877135487416  0.4064922809934134  0.3693344257576428
  0.2916708260814683  0.5316951022573034  0.3728502272269435
  0.2918056972500300  0.6569075542667939  0.3722291468605146
  0.2919484436611311  0.7819783767379034  0.3712737027762804
  0.2919234677004691  0.9069833307353290  0.3711229158397773
  0.2918120279200534  0.0317620148443465  0.3714600862698831
  0.2918167770377617  0.1565193614620588  0.3710826416232270
  0.1668403044815966  0.3440754310242785  0.3701974285702927
  0.1669074059607367  0.4692612594957707  0.3706080217571720
  0.1668936350391001  0.5943957583079644  0.3716649197389886
  0.1669427847276267  0.7195004868989173  0.3717873723629319
  0.1669334272706234  0.8444988019935784  0.3713045061805788
  0.1668553907187984  0.9693768653884871  0.3708086064730493
  0.1668575444755589  0.0942565642432061  0.3712055992206188
  0.1667837816681998  0.2191420548789207  0.3713068004120618
  0.0420545526426697  0.2816720084962454  0.3709440253880243
  0.0421837131093337  0.4067029016255050  0.3701909078431847
  0.0420981416299244  0.5319624245119194  0.3705993692710410
  0.0420962649609101  0.6570593060519336  0.3709725262095067
  0.0420692150786910  0.7820211719778908  0.3706420536929768
  0.0419355808225468  0.9070755365384380  0.3705648441445389
  0.0418453842880749  0.0319216291558814  0.3709295048802756
  0.0418821078244048  0.1567586103123469  0.3713440055287396
  0.9174448751566886  0.3442435420233737  0.3697787773163349
  0.9176679090177583  0.4693736828983664  0.3693831519926943
  0.9173844005193573  0.5945986351996209  0.3712228621599952
  0.9173370953621472  0.7196866214836809  0.3711445551598773
  0.9170006960402587  0.8446633217860110  0.3705395692503064
  0.9168796906073847  0.9695148077032695  0.3708690724938862
  0.9168561338546011  0.0944107249113668  0.3713588889463020
  0.9170356682366271  0.2192997242179736  0.3706832263158798
  0.7922704056192970  0.2817528105197651  0.3700011026688600
  0.7933616082721840  0.4067449526126748  0.3705528334256133
  0.7932791395327882  0.5320798882232823  0.3702665508289242
  0.7926302695054316  0.6575027121721235  0.3722728213912155
  0.7921587457544556  0.7822458682162872  0.3707278189766136
  0.7919605916265489  0.9071337005497436  0.3704951026953611
  0.7918424438841960  0.0319675182962457  0.3714643684213257
  0.7918757789253553  0.1568020345046641  0.3708304803519796
  0.5841216380833936  0.3439241654241779  0.3657448956947271
  0.5835057557237954  0.4692721103892727  0.3624724813833336
  0.5835949030718169  0.5950192962505297  0.3726811178815980
  0.5836437461716056  0.7199977772049828  0.3659375799497759
  0.5836947941272649  0.8448040641922447  0.3685518469413152
  0.5836063576112247  0.9695005992068267  0.3710668172423202
  0.5834716157584976  0.0943567122417547  0.3715265305396191
  0.5835802650871251  0.2191794089675881  0.3690716924897796
  0.4585172569220327  0.2809673736056276  0.3660688417394830
  0.4589859956575892  0.4054734056087214  0.3707682237233303
  0.4592271317191864  0.5318180098909175  0.3751541481702876
  0.4586559535722937  0.6579179177634528  0.3674680272272912
  0.4586001654519871  0.7823206332351462  0.3676313615439973
  0.4585732012329551  0.9070960866859445  0.3703646646796779
  0.4585327164067095  0.0317592550749955  0.3718372444746483
  0.4585507327247031  0.1564263106087950  0.3703677820717075
  0.3332281644678691  0.3437040500327240  0.3674758510627917
  0.3323891956709806  0.4689205520912692  0.3726446384699806
  0.3330633999770739  0.5944916955980137  0.3739398088798176
  0.3334627106730802  0.7196385988804794  0.3707839489914430
  0.3336759331134358  0.8445904974652941  0.3706226799008706
  0.3336135011610479  0.9693329567285731  0.3713729090362178
  0.3335597355478250  0.0941306876969001  0.3715131338941030
  0.3335786326144222  0.2189012423312528  0.3695409509186103
  0.2084478753309243  0.2815785251043437  0.3703313676475742
  0.2084188253644389  0.4066089809257743  0.3697907869198337
  0.2085271708176059  0.5318221462312960  0.3715920882578049
  0.2085451404641975  0.6570019891007670  0.3720855294788678
  0.2086476341888681  0.7820063217744806  0.3717543839002004
  0.2086140734903567  0.9070020840926510  0.3711357296971962
  0.2086258347196820  0.0317942707055611  0.3710422980056349
  0.2085867461541789  0.1566104163136025  0.3713758695741753
  0.0836740809726913  0.3441784851530785  0.3705994363325938
  0.0837240621467652  0.4693778043282273  0.3703610197466233
  0.0837241284448059  0.5945180793132752  0.3710092886280185
  0.0836488853438317  0.7195608393792391  0.3710917877454715
  0.0837261663359722  0.8445318858108066  0.3707944375954322
  0.0835685198717260  0.9694269269167057  0.3706603390612501
  0.0835575405648527  0.0942887154876862  0.3711544579649386
  0.0835547748575057  0.2192071916903633  0.3713930308114807
  0.9588065931180544  0.2817366817324999  0.3704391967949229
  0.9590779862475680  0.4067632561662728  0.3697409685332013
  0.9590059431915137  0.5320697864301314  0.3703822657348765
  0.9589787152854500  0.6571650229512418  0.3712307577239033
  0.9588316503085591  0.7821506982219290  0.3705657063364287
  0.9585466206956313  0.9071008805797401  0.3705556115843678
  0.9585006551190554  0.0319598026282191  0.3711148655510175
  0.9585301153776848  0.1568123771604766  0.3712181551965023
  0.8342702343222961  0.3441874304672207  0.3698231253339798
  0.8348644592558574  0.4692774245753735  0.3691111820257130
  0.8343884831879381  0.5948046629807238  0.3716419738160892
  0.8340641464687030  0.7199447695407807  0.3714644615428396
  0.8337060864617299  0.8447316156825893  0.3705749463331998
  0.8335336492845624  0.9695501567434534  0.3709940583679979
  0.8334630373774330  0.0944371835793130  0.3714012111932798
  0.8336364110206473  0.2193224501131508  0.3703841825172192
  0.7087848424174844  0.2816148200459632  0.3693857165242003
  0.7095875653471687  0.4063622169161949  0.3727662225530604
  0.7104091374291960  0.5320616620059427  0.3714332669608673
  0.7096480134069603  0.6583142774468106  0.3724325442677375
  0.7088352367526938  0.7823371327199615  0.3692348803079830
  0.7086409532448580  0.9071511006887202  0.3702027738714329
  0.7085262964447335  0.0319788359985789  0.3715080567299753
  0.7085115944905331  0.1567877188151595  0.3707250307371455
  0.4892443962176076  0.3140815812596483  0.5466204974275696
  0.6403651969762969  0.5219719478003932  0.5916515891161793
  0.5172031862483186  0.6582492738399458  0.5387146442773936
  0.6215973030146109  0.5826527704364909  0.4819720435583710
  0.4516659012422514  0.4226548059128555  0.4801678832141141
  0.4484073364179544  0.4256820425931628  0.6080153964240269
  0.5833988578240387  0.4121762457451497  0.5529709714062804
  0.4625402392376679  0.5519333736269921  0.4825422422849404
  0.4945767364561016  0.5480042883901314  0.6060007124964901
  0.6906546352437042  0.4646636521719419  0.4811963924455194

  0.00000000E+00  0.00000000E+00  0.00000000E+00
  0.00000000E+00  0.00000000E+00  0.00000000E+00
  0.00000000E+00  0.00000000E+00  0.00000000E+00
  0.00000000E+00  0.00000000E+00  0.00000000E+00
  0.00000000E+00  0.00000000E+00  0.00000000E+00
  0.00000000E+00  0.00000000E+00  0.00000000E+00
  0.00000000E+00  0.00000000E+00  0.00000000E+00
  0.00000000E+00  0.00000000E+00  0.00000000E+00
  0.00000000E+00  0.00000000E+00  0.00000000E+00
  0.00000000E+00  0.00000000E+00  0.00000000E+00
  0.00000000E+00  0.00000000E+00  0.00000000E+00
  0.00000000E+00  0.00000000E+00  0.00000000E+00
  0.00000000E+00  0.00000000E+00  0.00000000E+00
  0.00000000E+00  0.00000000E+00  0.00000000E+00
  0.00000000E+00  0.00000000E+00  0.00000000E+00
  0.00000000E+00  0.00000000E+00  0.00000000E+00
  0.00000000E+00  0.00000000E+00  0.00000000E+00
  0.00000000E+00  0.00000000E+00  0.00000000E+00
  0.00000000E+00  0.00000000E+00  0.00000000E+00
  0.00000000E+00  0.00000000E+00  0.00000000E+00
  0.00000000E+00  0.00000000E+00  0.00000000E+00
  0.00000000E+00  0.00000000E+00  0.00000000E+00
  0.00000000E+00  0.00000000E+00  0.00000000E+00
  0.00000000E+00  0.00000000E+00  0.00000000E+00
  0.00000000E+00  0.00000000E+00  0.00000000E+00
  0.00000000E+00  0.00000000E+00  0.00000000E+00
  0.00000000E+00  0.00000000E+00  0.00000000E+00
  0.00000000E+00  0.00000000E+00  0.00000000E+00
  0.00000000E+00  0.00000000E+00  0.00000000E+00
  0.00000000E+00  0.00000000E+00  0.00000000E+00
  0.00000000E+00  0.00000000E+00  0.00000000E+00
  0.00000000E+00  0.00000000E+00  0.00000000E+00
  0.00000000E+00  0.00000000E+00  0.00000000E+00
  0.00000000E+00  0.00000000E+00  0.00000000E+00
  0.00000000E+00  0.00000000E+00  0.00000000E+00
  0.00000000E+00  0.00000000E+00  0.00000000E+00
  0.00000000E+00  0.00000000E+00  0.00000000E+00
  0.00000000E+00  0.00000000E+00  0.00000000E+00
  0.00000000E+00  0.00000000E+00  0.00000000E+00
  0.00000000E+00  0.00000000E+00  0.00000000E+00
  0.00000000E+00  0.00000000E+00  0.00000000E+00
  0.00000000E+00  0.00000000E+00  0.00000000E+00
  0.00000000E+00  0.00000000E+00  0.00000000E+00
  0.00000000E+00  0.00000000E+00  0.00000000E+00
  0.00000000E+00  0.00000000E+00  0.00000000E+00
  0.00000000E+00  0.00000000E+00  0.00000000E+00
  0.00000000E+00  0.00000000E+00  0.00000000E+00
  0.00000000E+00  0.00000000E+00  0.00000000E+00
  0.00000000E+00  0.00000000E+00  0.00000000E+00
  0.00000000E+00  0.00000000E+00  0.00000000E+00
  0.00000000E+00  0.00000000E+00  0.00000000E+00
  0.00000000E+00  0.00000000E+00  0.00000000E+00
  0.00000000E+00  0.00000000E+00  0.00000000E+00
  0.00000000E+00  0.00000000E+00  0.00000000E+00
  0.00000000E+00  0.00000000E+00  0.00000000E+00
  0.00000000E+00  0.00000000E+00  0.00000000E+00
  0.00000000E+00  0.00000000E+00  0.00000000E+00
  0.00000000E+00  0.00000000E+00  0.00000000E+00
  0.00000000E+00  0.00000000E+00  0.00000000E+00
  0.00000000E+00  0.00000000E+00  0.00000000E+00
  0.00000000E+00  0.00000000E+00  0.00000000E+00
  0.00000000E+00  0.00000000E+00  0.00000000E+00
  0.00000000E+00  0.00000000E+00  0.00000000E+00
  0.00000000E+00  0.00000000E+00  0.00000000E+00
  0.00000000E+00  0.00000000E+00  0.00000000E+00
  0.00000000E+00  0.00000000E+00  0.00000000E+00
  0.00000000E+00  0.00000000E+00  0.00000000E+00
  0.00000000E+00  0.00000000E+00  0.00000000E+00
  0.00000000E+00  0.00000000E+00  0.00000000E+00
  0.00000000E+00  0.00000000E+00  0.00000000E+00
  0.00000000E+00  0.00000000E+00  0.00000000E+00
  0.00000000E+00  0.00000000E+00  0.00000000E+00
  0.00000000E+00  0.00000000E+00  0.00000000E+00
  0.00000000E+00  0.00000000E+00  0.00000000E+00
  0.00000000E+00  0.00000000E+00  0.00000000E+00
  0.00000000E+00  0.00000000E+00  0.00000000E+00
  0.00000000E+00  0.00000000E+00  0.00000000E+00
  0.00000000E+00  0.00000000E+00  0.00000000E+00
  0.00000000E+00  0.00000000E+00  0.00000000E+00
  0.00000000E+00  0.00000000E+00  0.00000000E+00
  0.00000000E+00  0.00000000E+00  0.00000000E+00
  0.00000000E+00  0.00000000E+00  0.00000000E+00
  0.00000000E+00  0.00000000E+00  0.00000000E+00
  0.00000000E+00  0.00000000E+00  0.00000000E+00
  0.00000000E+00  0.00000000E+00  0.00000000E+00
  0.00000000E+00  0.00000000E+00  0.00000000E+00
  0.00000000E+00  0.00000000E+00  0.00000000E+00
  0.00000000E+00  0.00000000E+00  0.00000000E+00
  0.00000000E+00  0.00000000E+00  0.00000000E+00
  0.00000000E+00  0.00000000E+00  0.00000000E+00
  0.00000000E+00  0.00000000E+00  0.00000000E+00
  0.00000000E+00  0.00000000E+00  0.00000000E+00
  0.00000000E+00  0.00000000E+00  0.00000000E+00
  0.00000000E+00  0.00000000E+00  0.00000000E+00
  0.00000000E+00  0.00000000E+00  0.00000000E+00
  0.00000000E+00  0.00000000E+00  0.00000000E+00
  0.00000000E+00  0.00000000E+00  0.00000000E+00
  0.00000000E+00  0.00000000E+00  0.00000000E+00
  0.00000000E+00  0.00000000E+00  0.00000000E+00
  0.00000000E+00  0.00000000E+00  0.00000000E+00
  0.00000000E+00  0.00000000E+00  0.00000000E+00
  0.00000000E+00  0.00000000E+00  0.00000000E+00
  0.00000000E+00  0.00000000E+00  0.00000000E+00
  0.00000000E+00  0.00000000E+00  0.00000000E+00
  0.00000000E+00  0.00000000E+00  0.00000000E+00
  0.00000000E+00  0.00000000E+00  0.00000000E+00
  0.00000000E+00  0.00000000E+00  0.00000000E+00
  0.00000000E+00  0.00000000E+00  0.00000000E+00
  0.00000000E+00  0.00000000E+00  0.00000000E+00
  0.00000000E+00  0.00000000E+00  0.00000000E+00
  0.00000000E+00  0.00000000E+00  0.00000000E+00
  0.00000000E+00  0.00000000E+00  0.00000000E+00
  0.00000000E+00  0.00000000E+00  0.00000000E+00
  0.00000000E+00  0.00000000E+00  0.00000000E+00
  0.00000000E+00  0.00000000E+00  0.00000000E+00
  0.00000000E+00  0.00000000E+00  0.00000000E+00
  0.00000000E+00  0.00000000E+00  0.00000000E+00
  0.00000000E+00  0.00000000E+00  0.00000000E+00
  0.00000000E+00  0.00000000E+00  0.00000000E+00
  0.00000000E+00  0.00000000E+00  0.00000000E+00
  0.00000000E+00  0.00000000E+00  0.00000000E+00
  0.00000000E+00  0.00000000E+00  0.00000000E+00
  0.00000000E+00  0.00000000E+00  0.00000000E+00
  0.00000000E+00  0.00000000E+00  0.00000000E+00
  0.00000000E+00  0.00000000E+00  0.00000000E+00
  0.00000000E+00  0.00000000E+00  0.00000000E+00
  0.00000000E+00  0.00000000E+00  0.00000000E+00
  0.00000000E+00  0.00000000E+00  0.00000000E+00
  0.00000000E+00  0.00000000E+00  0.00000000E+00
  0.00000000E+00  0.00000000E+00  0.00000000E+00
  0.00000000E+00  0.00000000E+00  0.00000000E+00
  0.00000000E+00  0.00000000E+00  0.00000000E+00
  0.00000000E+00  0.00000000E+00  0.00000000E+00
  0.00000000E+00  0.00000000E+00  0.00000000E+00
  0.00000000E+00  0.00000000E+00  0.00000000E+00
  0.00000000E+00  0.00000000E+00  0.00000000E+00
  0.00000000E+00  0.00000000E+00  0.00000000E+00
  0.00000000E+00  0.00000000E+00  0.00000000E+00
