 C Pt                                   
   1.0000000000000000     
    17.0979999999999990    0.0000000000000000    0.0000000000000000
     0.0000000000000000   19.7420000000000009    0.0000000000000000
     0.0000000000000000    0.0000000000000000   20.0000000000000000
   C    Pt
   128    10
Direct
  0.6665347269041524  0.3435178294875209  0.3793416613110943
  0.6668286568157046  0.4680979946909448  0.3719556237403024
  0.6661153041522054  0.5925375672129137  0.3725409307153343
  0.6670521050138848  0.7184628094895367  0.3899562131450349
  0.6664249207817123  0.8436474655459943  0.3827682300944849
  0.6664486765099544  0.9686683714980400  0.3803502967021481
  0.6665111540045833  0.0935831746387515  0.3812053972589190
  0.6665625422306973  0.2186226548648001  0.3818514726258587
  0.5414803690118599  0.2811232242582170  0.3806777247861845
  0.5413631217394714  0.4058665099062231  0.3759624106845724
  0.5426108056705294  0.5304897538068007  0.3704804907704826
  0.5405234072423515  0.6552755538577946  0.3804837869179360
  0.5403487572974699  0.7822223653262516  0.3799228405805470
  0.5413199434363660  0.9063576912195320  0.3793608128548728
  0.5415395749237231  0.0312286653760805  0.3809866806288233
  0.5414965509700114  0.1561441632127279  0.3817726147212364
  0.4163443047259882  0.3434354867040035  0.3800560980859564
  0.4157231741513395  0.4677726096543842  0.3774720102260308
  0.4149903369015338  0.5938508728976546  0.3753158718213850
  0.4155990714975075  0.7189999296728912  0.3721582226344531
  0.4160889251752912  0.8440105872624226  0.3761801702423751
  0.4163307519059273  0.9687749417524192  0.3805780424684765
  0.4164595783401798  0.0936933978596819  0.3815631885526619
  0.4164952072164886  0.2185387835340627  0.3814241199732910
  0.2913949726665533  0.2811201538616914  0.3812559279250867
  0.2911812735521223  0.4059537375026444  0.3791257159219977
  0.2903941066561432  0.5308430286943528  0.3758169729124167
  0.2905900398450338  0.6561502055002150  0.3756351708570966
  0.2911048005173111  0.7812823172873868  0.3776662715805563
  0.2912947280316169  0.9062016029623122  0.3807785493353402
  0.2914120274833142  0.0311991060974850  0.3812981757650386
  0.2914620216172547  0.1561165915376044  0.3812236646808838
  0.1663148782778437  0.3435789735623689  0.3808168984618345
  0.1661143619710911  0.4684221050473192  0.3796632852029225
  0.1660382818172767  0.5936635350593987  0.3795983774859918
  0.1661157153450637  0.7186533348340156  0.3809124146673909
  0.1663346468446848  0.8436895055052214  0.3819308130146749
  0.1663642910046434  0.9686171720678317  0.3814628547582883
  0.1664518157223780  0.0936108487685140  0.3807312753381762
  0.1664338929030056  0.2186849993651742  0.3810870433260768
  0.0414234327190832  0.2810668739160052  0.3811327166970053
  0.0413967393872953  0.4060402689495362  0.3814296753526020
  0.0414192942847192  0.5310366010721440  0.3814739157841217
  0.0414498843727749  0.6560770321179542  0.3819871368814183
  0.0414060487935714  0.7811104327130171  0.3815444313855827
  0.0414420799411356  0.9060829154038079  0.3808827123513127
  0.0414214072236323  0.0310912460195630  0.3807694091172488
  0.0413948779371544  0.1561077817269692  0.3807155907642941
  0.9164359567761748  0.3434936436155988  0.3819323840083468
  0.9165283196473115  0.4685109722756688  0.3817930752530656
  0.9167431791763692  0.5934043798192203  0.3813298747918967
  0.9166957655148864  0.7185158714465202  0.3816635549783606
  0.9165856820445302  0.8435482524729074  0.3801179967932903
  0.9164513219585728  0.9686116671578938  0.3804234685103705
  0.9164090786394289  0.0935713963794687  0.3807945254609625
  0.9163890076930929  0.2185247529084918  0.3810873563669577
  0.7914589925224632  0.2810373557561244  0.3817836483574001
  0.7915142490199971  0.4059308972783315  0.3796880097422761
  0.7917132818707326  0.5307918259114203  0.3760802398357451
  0.7925669048737396  0.6557558765202854  0.3811265385366443
  0.7916250910661791  0.7811850400472120  0.3825094347769964
  0.7914168870332169  0.9061005061770314  0.3805572620650729
  0.7914774713179578  0.0311153965683737  0.3806184162806737
  0.7914911375003153  0.1560873772560508  0.3812744494294851
  0.5830517286430501  0.3436071345449337  0.3788362267779916
  0.5835743273391074  0.4681969509496881  0.3713466508179404
  0.5836927810608569  0.5925396863399406  0.3709366665653923
  0.5815494485209914  0.7189738860335996  0.3882406827074601
  0.5827880621267325  0.8438764745626146  0.3806223177397927
  0.5830309625052493  0.9688210981198569  0.3802591106655575
  0.5830902118670178  0.0936901149859960  0.3814743676075661
  0.5830656469000994  0.2186565454535741  0.3816301962475518
  0.4581172375641373  0.2809909892407496  0.3807908465616699
  0.4580285347134198  0.4057576472798921  0.3777512061549170
  0.4583587232637236  0.5306083876250811  0.3780981353996187
  0.4566229840232128  0.6565700879992910  0.3732361731710636
  0.4575914267117011  0.7817336515730839  0.3743226866328143
  0.4579583378117666  0.9064309214011613  0.3787678761210744
  0.4580349324593821  0.0312176771002007  0.3812272166090696
  0.4581159624888475  0.1561756169104351  0.3816871371958334
  0.3330214514353788  0.3434872197602161  0.3806587199157619
  0.3322760892868766  0.4683214208046587  0.3768130021626616
  0.3313720587344291  0.5935668982844795  0.3744789359449147
  0.3324277093514448  0.7187967543681100  0.3742754298709993
  0.3327497818582187  0.8437858138243890  0.3779928786871364
  0.3330906454935191  0.9687551710371501  0.3811134541613782
  0.3330810958615522  0.0936844804306192  0.3813347008992414
  0.3331153597292292  0.2186047287622679  0.3813417801352960
  0.2081028483059653  0.2810194615362135  0.3810931548981603
  0.2077900873130025  0.4060582147619843  0.3798723205021415
  0.2076377738816272  0.5309898623278855  0.3782734340252921
  0.2075194531855577  0.6561685335169802  0.3789578557335331
  0.2078844735940387  0.7811423234639228  0.3807161220577109
  0.2079771492773360  0.9061421774448707  0.3818247750183626
  0.2080372348488314  0.0312108193974175  0.3810199646059963
  0.2081382623762356  0.1561152547201100  0.3810138419013012
  0.0830402040354664  0.3435731503089692  0.3811219686909857
  0.0830077512172231  0.4684695898509047  0.3808449721835708
  0.0829430183444169  0.5935235060800963  0.3811767184501840
  0.0829925620027779  0.7186008604974908  0.3819073253019359
  0.0830684184513441  0.8436250782731226  0.3815901492193636
  0.0830696934452129  0.9686269610316232  0.3810504984165181
  0.0830963135426222  0.0936269040097352  0.3806493101836986
  0.0831014685105245  0.2185935682511133  0.3809596025798080
  0.9581178132026249  0.2811250459916129  0.3813441108957676
  0.9581541976375169  0.4060555233735025  0.3820870389698076
  0.9582754172912404  0.5309557516866704  0.3819048945879034
  0.9582065936519529  0.6560043109767338  0.3821057543778770
  0.9581993068552048  0.7810819507011632  0.3809740584297130
  0.9581186217892348  0.9060186686830919  0.3801799485945992
  0.9580898834257868  0.0310810527354766  0.3807592068327509
  0.9581192706910387  0.1561090464779981  0.3807481162536631
  0.8332561519459982  0.3436067393045365  0.3817353402440781
  0.8332529815227400  0.4685318400986919  0.3793516102192404
  0.8336940596480573  0.5932586296155746  0.3788316660117931
  0.8335270047678416  0.7184692823182457  0.3821240341141988
  0.8331986431462783  0.8435369096960845  0.3806027014727864
  0.8331198434960776  0.9685544444759288  0.3803908011321248
  0.8330823875297773  0.0935921179892523  0.3808550148036361
  0.8331279218480615  0.2186056415801096  0.3814930763996147
  0.7080922171061091  0.2810777136684201  0.3814427997333794
  0.7083863833587613  0.4058844958928474  0.3769749876844524
  0.7084921566177103  0.5304327283578982  0.3715747546626590
  0.7084615300250782  0.6550090324492839  0.3835436926726501
  0.7085262609106867  0.7814364749864924  0.3854468394793450
  0.7081249258596389  0.9059943702196382  0.3809622289587440
  0.7080803915619260  0.0311355417312773  0.3805721075278049
  0.7080649135721516  0.1561616422030161  0.3816294956615540
  0.6898179715521705  0.6636516905744724  0.4936571063942679
  0.4949572273497153  0.4618275494201480  0.5563368984766434
  0.5424104893516127  0.6857360836104247  0.4886191649340488
  0.6316240389461992  0.4228663420585050  0.5484321884475062
  0.4048589134250595  0.6679631366061921  0.5423112782190453
  0.6461942194075742  0.5475135412461080  0.5484490946556186
  0.5128013481680971  0.5825086902458120  0.5949559441036508
  0.5296378114048077  0.7080983923092843  0.6115002479431556
  0.4411748124914192  0.5539201283741081  0.4832268120988014
  0.6675880066203036  0.6560654090759042  0.6178209601887968

  0.00000000E+00  0.00000000E+00  0.00000000E+00
  0.00000000E+00  0.00000000E+00  0.00000000E+00
  0.00000000E+00  0.00000000E+00  0.00000000E+00
  0.00000000E+00  0.00000000E+00  0.00000000E+00
  0.00000000E+00  0.00000000E+00  0.00000000E+00
  0.00000000E+00  0.00000000E+00  0.00000000E+00
  0.00000000E+00  0.00000000E+00  0.00000000E+00
  0.00000000E+00  0.00000000E+00  0.00000000E+00
  0.00000000E+00  0.00000000E+00  0.00000000E+00
  0.00000000E+00  0.00000000E+00  0.00000000E+00
  0.00000000E+00  0.00000000E+00  0.00000000E+00
  0.00000000E+00  0.00000000E+00  0.00000000E+00
  0.00000000E+00  0.00000000E+00  0.00000000E+00
  0.00000000E+00  0.00000000E+00  0.00000000E+00
  0.00000000E+00  0.00000000E+00  0.00000000E+00
  0.00000000E+00  0.00000000E+00  0.00000000E+00
  0.00000000E+00  0.00000000E+00  0.00000000E+00
  0.00000000E+00  0.00000000E+00  0.00000000E+00
  0.00000000E+00  0.00000000E+00  0.00000000E+00
  0.00000000E+00  0.00000000E+00  0.00000000E+00
  0.00000000E+00  0.00000000E+00  0.00000000E+00
  0.00000000E+00  0.00000000E+00  0.00000000E+00
  0.00000000E+00  0.00000000E+00  0.00000000E+00
  0.00000000E+00  0.00000000E+00  0.00000000E+00
  0.00000000E+00  0.00000000E+00  0.00000000E+00
  0.00000000E+00  0.00000000E+00  0.00000000E+00
  0.00000000E+00  0.00000000E+00  0.00000000E+00
  0.00000000E+00  0.00000000E+00  0.00000000E+00
  0.00000000E+00  0.00000000E+00  0.00000000E+00
  0.00000000E+00  0.00000000E+00  0.00000000E+00
  0.00000000E+00  0.00000000E+00  0.00000000E+00
  0.00000000E+00  0.00000000E+00  0.00000000E+00
  0.00000000E+00  0.00000000E+00  0.00000000E+00
  0.00000000E+00  0.00000000E+00  0.00000000E+00
  0.00000000E+00  0.00000000E+00  0.00000000E+00
  0.00000000E+00  0.00000000E+00  0.00000000E+00
  0.00000000E+00  0.00000000E+00  0.00000000E+00
  0.00000000E+00  0.00000000E+00  0.00000000E+00
  0.00000000E+00  0.00000000E+00  0.00000000E+00
  0.00000000E+00  0.00000000E+00  0.00000000E+00
  0.00000000E+00  0.00000000E+00  0.00000000E+00
  0.00000000E+00  0.00000000E+00  0.00000000E+00
  0.00000000E+00  0.00000000E+00  0.00000000E+00
  0.00000000E+00  0.00000000E+00  0.00000000E+00
  0.00000000E+00  0.00000000E+00  0.00000000E+00
  0.00000000E+00  0.00000000E+00  0.00000000E+00
  0.00000000E+00  0.00000000E+00  0.00000000E+00
  0.00000000E+00  0.00000000E+00  0.00000000E+00
  0.00000000E+00  0.00000000E+00  0.00000000E+00
  0.00000000E+00  0.00000000E+00  0.00000000E+00
  0.00000000E+00  0.00000000E+00  0.00000000E+00
  0.00000000E+00  0.00000000E+00  0.00000000E+00
  0.00000000E+00  0.00000000E+00  0.00000000E+00
  0.00000000E+00  0.00000000E+00  0.00000000E+00
  0.00000000E+00  0.00000000E+00  0.00000000E+00
  0.00000000E+00  0.00000000E+00  0.00000000E+00
  0.00000000E+00  0.00000000E+00  0.00000000E+00
  0.00000000E+00  0.00000000E+00  0.00000000E+00
  0.00000000E+00  0.00000000E+00  0.00000000E+00
  0.00000000E+00  0.00000000E+00  0.00000000E+00
  0.00000000E+00  0.00000000E+00  0.00000000E+00
  0.00000000E+00  0.00000000E+00  0.00000000E+00
  0.00000000E+00  0.00000000E+00  0.00000000E+00
  0.00000000E+00  0.00000000E+00  0.00000000E+00
  0.00000000E+00  0.00000000E+00  0.00000000E+00
  0.00000000E+00  0.00000000E+00  0.00000000E+00
  0.00000000E+00  0.00000000E+00  0.00000000E+00
  0.00000000E+00  0.00000000E+00  0.00000000E+00
  0.00000000E+00  0.00000000E+00  0.00000000E+00
  0.00000000E+00  0.00000000E+00  0.00000000E+00
  0.00000000E+00  0.00000000E+00  0.00000000E+00
  0.00000000E+00  0.00000000E+00  0.00000000E+00
  0.00000000E+00  0.00000000E+00  0.00000000E+00
  0.00000000E+00  0.00000000E+00  0.00000000E+00
  0.00000000E+00  0.00000000E+00  0.00000000E+00
  0.00000000E+00  0.00000000E+00  0.00000000E+00
  0.00000000E+00  0.00000000E+00  0.00000000E+00
  0.00000000E+00  0.00000000E+00  0.00000000E+00
  0.00000000E+00  0.00000000E+00  0.00000000E+00
  0.00000000E+00  0.00000000E+00  0.00000000E+00
  0.00000000E+00  0.00000000E+00  0.00000000E+00
  0.00000000E+00  0.00000000E+00  0.00000000E+00
  0.00000000E+00  0.00000000E+00  0.00000000E+00
  0.00000000E+00  0.00000000E+00  0.00000000E+00
  0.00000000E+00  0.00000000E+00  0.00000000E+00
  0.00000000E+00  0.00000000E+00  0.00000000E+00
  0.00000000E+00  0.00000000E+00  0.00000000E+00
  0.00000000E+00  0.00000000E+00  0.00000000E+00
  0.00000000E+00  0.00000000E+00  0.00000000E+00
  0.00000000E+00  0.00000000E+00  0.00000000E+00
  0.00000000E+00  0.00000000E+00  0.00000000E+00
  0.00000000E+00  0.00000000E+00  0.00000000E+00
  0.00000000E+00  0.00000000E+00  0.00000000E+00
  0.00000000E+00  0.00000000E+00  0.00000000E+00
  0.00000000E+00  0.00000000E+00  0.00000000E+00
  0.00000000E+00  0.00000000E+00  0.00000000E+00
  0.00000000E+00  0.00000000E+00  0.00000000E+00
  0.00000000E+00  0.00000000E+00  0.00000000E+00
  0.00000000E+00  0.00000000E+00  0.00000000E+00
  0.00000000E+00  0.00000000E+00  0.00000000E+00
  0.00000000E+00  0.00000000E+00  0.00000000E+00
  0.00000000E+00  0.00000000E+00  0.00000000E+00
  0.00000000E+00  0.00000000E+00  0.00000000E+00
  0.00000000E+00  0.00000000E+00  0.00000000E+00
  0.00000000E+00  0.00000000E+00  0.00000000E+00
  0.00000000E+00  0.00000000E+00  0.00000000E+00
  0.00000000E+00  0.00000000E+00  0.00000000E+00
  0.00000000E+00  0.00000000E+00  0.00000000E+00
  0.00000000E+00  0.00000000E+00  0.00000000E+00
  0.00000000E+00  0.00000000E+00  0.00000000E+00
  0.00000000E+00  0.00000000E+00  0.00000000E+00
  0.00000000E+00  0.00000000E+00  0.00000000E+00
  0.00000000E+00  0.00000000E+00  0.00000000E+00
  0.00000000E+00  0.00000000E+00  0.00000000E+00
  0.00000000E+00  0.00000000E+00  0.00000000E+00
  0.00000000E+00  0.00000000E+00  0.00000000E+00
  0.00000000E+00  0.00000000E+00  0.00000000E+00
  0.00000000E+00  0.00000000E+00  0.00000000E+00
  0.00000000E+00  0.00000000E+00  0.00000000E+00
  0.00000000E+00  0.00000000E+00  0.00000000E+00
  0.00000000E+00  0.00000000E+00  0.00000000E+00
  0.00000000E+00  0.00000000E+00  0.00000000E+00
  0.00000000E+00  0.00000000E+00  0.00000000E+00
  0.00000000E+00  0.00000000E+00  0.00000000E+00
  0.00000000E+00  0.00000000E+00  0.00000000E+00
  0.00000000E+00  0.00000000E+00  0.00000000E+00
  0.00000000E+00  0.00000000E+00  0.00000000E+00
  0.00000000E+00  0.00000000E+00  0.00000000E+00
  0.00000000E+00  0.00000000E+00  0.00000000E+00
  0.00000000E+00  0.00000000E+00  0.00000000E+00
  0.00000000E+00  0.00000000E+00  0.00000000E+00
  0.00000000E+00  0.00000000E+00  0.00000000E+00
  0.00000000E+00  0.00000000E+00  0.00000000E+00
  0.00000000E+00  0.00000000E+00  0.00000000E+00
  0.00000000E+00  0.00000000E+00  0.00000000E+00
  0.00000000E+00  0.00000000E+00  0.00000000E+00
  0.00000000E+00  0.00000000E+00  0.00000000E+00
  0.00000000E+00  0.00000000E+00  0.00000000E+00
