 C Pt                                   
   1.0000000000000000     
    17.0979999999999990    0.0000000000000000    0.0000000000000000
     0.0000000000000000   19.7420000000000009    0.0000000000000000
     0.0000000000000000    0.0000000000000000   20.0000000000000000
   C    Pt
   128    10
Direct
  0.6667125699019978  0.3434761154138700  0.3007025367726860
  0.6667115100538581  0.4686015353616134  0.3076950054824560
  0.6670885032779903  0.5944594100814400  0.3113936529449268
  0.6666768116291326  0.7189949508765865  0.3005410226599309
  0.6663590440104785  0.8441633262936450  0.3006617538291389
  0.6664494793656182  0.9690009530800500  0.3026274460862344
  0.6662272979019540  0.0936574271297244  0.3024841278653695
  0.6663875249550639  0.2188940597990230  0.3006968186823875
  0.5409949418930354  0.2810785061758259  0.2994808714002575
  0.5408445844276909  0.4061548835705920  0.2993047088260217
  0.5415211778061357  0.5307616206513882  0.2996867993058718
  0.5405575096815727  0.6574113701679236  0.3011910068819985
  0.5414396779520908  0.7816929585008602  0.2996507948041022
  0.5413341465493963  0.9063283099569032  0.3020443012935002
  0.5412890402309489  0.0316211373900521  0.3029918877758516
  0.5413982077301964  0.1561987540324291  0.3018830010224267
  0.4161242217523270  0.3433686541207542  0.2995591241183701
  0.4156226393506032  0.4682659635623208  0.3014218497268111
  0.4157140834224630  0.5945379342007120  0.3056642999586782
  0.4161772579062109  0.7190862223766182  0.3007885805723949
  0.4161963491470828  0.8442161051410106  0.3018172228750020
  0.4163041139007974  0.9689479787547396  0.3029295876638095
  0.4161535268807542  0.0936788881139135  0.3027607906800912
  0.4164814031947470  0.2190488886337132  0.3013840694486700
  0.2912603193931029  0.2814645812179479  0.3017099715308904
  0.2911569128165828  0.4063782995025589  0.3002657220733908
  0.2906218550734164  0.5313121949376666  0.3009367822441970
  0.2907642735681575  0.6566448038010801  0.3030957228023181
  0.2912238586551202  0.7815242306016065  0.3026602714215070
  0.2912792890971851  0.9064367402571305  0.3026424551551159
  0.2914952131199804  0.0316428672865073  0.3026648263184913
  0.2911420970340312  0.1561068327185354  0.3024819229682950
  0.1659789323904477  0.3438673488609251  0.3019343356026014
  0.1657962081624559  0.4689305340516506  0.3012823050066633
  0.1659357880234941  0.5941033965146240  0.3022320570328170
  0.1665294293166127  0.7190249799838906  0.3026566835622928
  0.1661889395275024  0.8440344684591041  0.3025363885519787
  0.1661139264727555  0.9688406728460367  0.3021726274444015
  0.1661649211050850  0.0941270809442611  0.3025349886384456
  0.1665625620429731  0.2187816204037207  0.3024745145256998
  0.0413499910256907  0.2816971949057769  0.3022359942817726
  0.0414224213117885  0.4062027582034437  0.3019257764377652
  0.0413075821937559  0.5315884768145624  0.3019814582745626
  0.0410509052717805  0.6563021890464005  0.3022476200315296
  0.0413852500450171  0.7818485880482704  0.3023018421624105
  0.0414347380853128  0.9065283561094194  0.3021949718255726
  0.0413162562273280  0.0316009870126877  0.3021531762391740
  0.0410497709000763  0.1561001780600595  0.3026357517387951
  0.9163659987512367  0.3439247314727939  0.3023614167019199
  0.9162069883991559  0.4686948219196114  0.3026741071996573
  0.9163137092065444  0.5942749333926317  0.3028529543686836
  0.9165022210521485  0.7190245295280158  0.3020746809529903
  0.9163773700628171  0.8441190802257444  0.3021593577274158
  0.9162963602543834  0.9690519870468253  0.3024177155522822
  0.9162436015765159  0.0941432852573130  0.3022526257090805
  0.9163657522620061  0.2186602149534919  0.3021629410993297
  0.7911873490496671  0.2813221510744105  0.3016634226723449
  0.7916482725869599  0.4062645168692727  0.3034355660156582
  0.7914727827275699  0.5313036127255195  0.3044977942593204
  0.7913390131570603  0.6567335333114807  0.3033111822699534
  0.7914959614815398  0.7817133879214613  0.3014271859940822
  0.7914599235616663  0.9065262738361503  0.3021691199470833
  0.7912825333878282  0.0315718444161447  0.3026091040856055
  0.7914426136708893  0.1562276481479576  0.3019018464481821
  0.5826784140504127  0.3434904050546168  0.2992061077445141
  0.5824434354826137  0.4687097325297637  0.3013359787527591
  0.5823775487742834  0.5938371046409797  0.3063653345773514
  0.5828492071695455  0.7195966999089313  0.2999259149962585
  0.5829139037307175  0.8440901630700498  0.3005276840573720
  0.5830960496687321  0.9689651336357975  0.3028216807121019
  0.5831929250118245  0.0940474605313869  0.3025449374199761
  0.5830062849607510  0.2185739313600195  0.3006380729782694
  0.4577543604154156  0.2812989679856908  0.3003126374772440
  0.4574897246264978  0.4056591227336015  0.2992618253455714
  0.4579376634916865  0.5310887582638798  0.3028256306316652
  0.4575784237498500  0.6571929453394693  0.3016681514058910
  0.4580353788590574  0.7817975491919150  0.3005086204756913
  0.4581070099483862  0.9067606419569527  0.3022775800709585
  0.4581776852889587  0.0312608315071173  0.3031679136849327
  0.4582383823664294  0.1563549278646736  0.3018652806455105
  0.3327762624642542  0.3438077226651264  0.3007658103138572
  0.3319993048326010  0.4686233167140600  0.3005050899987771
  0.3317590563662326  0.5940313508415244  0.3040020898869228
  0.3326696503094038  0.7192094510870778  0.3023051923159554
  0.3330050278503204  0.8440597206085834  0.3023002239235849
  0.3333469194708248  0.9691598577596617  0.3028586219731536
  0.3330629401076095  0.0939419725456238  0.3027328188289622
  0.3330017800533102  0.2187095977048850  0.3017441269998190
  0.2077410559090488  0.2814552888466646  0.3019919995737285
  0.2073726241722182  0.4063216686876525  0.3010408443812341
  0.2072678218915712  0.5315298729930100  0.3010331211795303
  0.2074143889227129  0.6562135357741218  0.3025377042802571
  0.2080454077215384  0.7818174247067624  0.3028093905370930
  0.2081124285816872  0.9064370967092302  0.3025611436220364
  0.2083440817384208  0.0316511297138700  0.3023209313536442
  0.2082242070150772  0.1562085260337454  0.3027070030511435
  0.0829705798974654  0.3440137882453452  0.3021625009637998
  0.0825002572442304  0.4688099818773321  0.3018465543339228
  0.0827750824668363  0.5941100657527549  0.3023794515951262
  0.0827386779559484  0.7187058944298220  0.3024288609083717
  0.0832528124717855  0.8444161855784070  0.3023393397818889
  0.0831842205108456  0.9688675339403320  0.3019553751911533
  0.0834992071447248  0.0937641008189181  0.3025033187436856
  0.0831177632114659  0.2189283628479006  0.3025786238061509
  0.9581137932330128  0.2812817509702873  0.3021946105180655
  0.9582817606785070  0.4062745667336427  0.3022118591952153
  0.9579812477505835  0.5315672908980413  0.3022780409077994
  0.9579462020147861  0.6566016337905345  0.3022345179094948
  0.9576993169389582  0.7816114093380919  0.3021619360594201
  0.9583835725924652  0.9062408513925915  0.3023563455657388
  0.9583051068288360  0.0317196774958305  0.3022342177595953
  0.9581427567861655  0.1562078583721337  0.3023908892697379
  0.8330667616859638  0.3436104118192265  0.3023512533219284
  0.8329767514777168  0.4686670712326917  0.3036143542734523
  0.8332050983823136  0.5941424201838278  0.3039285315073728
  0.8331078172038425  0.7190773190981448  0.3018074621029692
  0.8332171222507567  0.8442223527210443  0.3018782770044173
  0.8329007446556059  0.9688415212099182  0.3025837121579604
  0.8333889797244792  0.0939193123123457  0.3023177515499010
  0.8330741446873016  0.2188675071807414  0.3017578118053112
  0.7080750156278385  0.2811647478860810  0.3007733971727879
  0.7085000463036668  0.4057160926858576  0.3041955938012426
  0.7090090300401241  0.5311710699754759  0.3069025716931267
  0.7085307586160732  0.6573239893660234  0.3046895358756184
  0.7079047615720543  0.7816064798552176  0.3003839340255377
  0.7081908546960642  0.9065748473779643  0.3017863777270262
  0.7080320994970182  0.0314187518654236  0.3028935165529683
  0.7080373521498785  0.1562207857589767  0.3015867498663243
  0.6116852656238695  0.5299791250286389  0.5347021715062314
  0.5169295172111089  0.5439787636505621  0.6562246664610171
  0.5747198055699289  0.7019578571256996  0.4698003470004055
  0.5795604492129359  0.6415266164712344  0.5922664957970754
  0.4126685993752868  0.5200774177464591  0.5712525717715976
  0.4301558586786693  0.5418413773252898  0.4108528086332977
  0.6161959209015330  0.5890101912810265  0.4207424802460087
  0.4784494789696556  0.6127753704284120  0.5058570234355884
  0.4995405936927010  0.4603617033983611  0.4877010428437900
  0.6323887557012073  0.4598558851849083  0.4242152551107717

  0.00000000E+00  0.00000000E+00  0.00000000E+00
  0.00000000E+00  0.00000000E+00  0.00000000E+00
  0.00000000E+00  0.00000000E+00  0.00000000E+00
  0.00000000E+00  0.00000000E+00  0.00000000E+00
  0.00000000E+00  0.00000000E+00  0.00000000E+00
  0.00000000E+00  0.00000000E+00  0.00000000E+00
  0.00000000E+00  0.00000000E+00  0.00000000E+00
  0.00000000E+00  0.00000000E+00  0.00000000E+00
  0.00000000E+00  0.00000000E+00  0.00000000E+00
  0.00000000E+00  0.00000000E+00  0.00000000E+00
  0.00000000E+00  0.00000000E+00  0.00000000E+00
  0.00000000E+00  0.00000000E+00  0.00000000E+00
  0.00000000E+00  0.00000000E+00  0.00000000E+00
  0.00000000E+00  0.00000000E+00  0.00000000E+00
  0.00000000E+00  0.00000000E+00  0.00000000E+00
  0.00000000E+00  0.00000000E+00  0.00000000E+00
  0.00000000E+00  0.00000000E+00  0.00000000E+00
  0.00000000E+00  0.00000000E+00  0.00000000E+00
  0.00000000E+00  0.00000000E+00  0.00000000E+00
  0.00000000E+00  0.00000000E+00  0.00000000E+00
  0.00000000E+00  0.00000000E+00  0.00000000E+00
  0.00000000E+00  0.00000000E+00  0.00000000E+00
  0.00000000E+00  0.00000000E+00  0.00000000E+00
  0.00000000E+00  0.00000000E+00  0.00000000E+00
  0.00000000E+00  0.00000000E+00  0.00000000E+00
  0.00000000E+00  0.00000000E+00  0.00000000E+00
  0.00000000E+00  0.00000000E+00  0.00000000E+00
  0.00000000E+00  0.00000000E+00  0.00000000E+00
  0.00000000E+00  0.00000000E+00  0.00000000E+00
  0.00000000E+00  0.00000000E+00  0.00000000E+00
  0.00000000E+00  0.00000000E+00  0.00000000E+00
  0.00000000E+00  0.00000000E+00  0.00000000E+00
  0.00000000E+00  0.00000000E+00  0.00000000E+00
  0.00000000E+00  0.00000000E+00  0.00000000E+00
  0.00000000E+00  0.00000000E+00  0.00000000E+00
  0.00000000E+00  0.00000000E+00  0.00000000E+00
  0.00000000E+00  0.00000000E+00  0.00000000E+00
  0.00000000E+00  0.00000000E+00  0.00000000E+00
  0.00000000E+00  0.00000000E+00  0.00000000E+00
  0.00000000E+00  0.00000000E+00  0.00000000E+00
  0.00000000E+00  0.00000000E+00  0.00000000E+00
  0.00000000E+00  0.00000000E+00  0.00000000E+00
  0.00000000E+00  0.00000000E+00  0.00000000E+00
  0.00000000E+00  0.00000000E+00  0.00000000E+00
  0.00000000E+00  0.00000000E+00  0.00000000E+00
  0.00000000E+00  0.00000000E+00  0.00000000E+00
  0.00000000E+00  0.00000000E+00  0.00000000E+00
  0.00000000E+00  0.00000000E+00  0.00000000E+00
  0.00000000E+00  0.00000000E+00  0.00000000E+00
  0.00000000E+00  0.00000000E+00  0.00000000E+00
  0.00000000E+00  0.00000000E+00  0.00000000E+00
  0.00000000E+00  0.00000000E+00  0.00000000E+00
  0.00000000E+00  0.00000000E+00  0.00000000E+00
  0.00000000E+00  0.00000000E+00  0.00000000E+00
  0.00000000E+00  0.00000000E+00  0.00000000E+00
  0.00000000E+00  0.00000000E+00  0.00000000E+00
  0.00000000E+00  0.00000000E+00  0.00000000E+00
  0.00000000E+00  0.00000000E+00  0.00000000E+00
  0.00000000E+00  0.00000000E+00  0.00000000E+00
  0.00000000E+00  0.00000000E+00  0.00000000E+00
  0.00000000E+00  0.00000000E+00  0.00000000E+00
  0.00000000E+00  0.00000000E+00  0.00000000E+00
  0.00000000E+00  0.00000000E+00  0.00000000E+00
  0.00000000E+00  0.00000000E+00  0.00000000E+00
  0.00000000E+00  0.00000000E+00  0.00000000E+00
  0.00000000E+00  0.00000000E+00  0.00000000E+00
  0.00000000E+00  0.00000000E+00  0.00000000E+00
  0.00000000E+00  0.00000000E+00  0.00000000E+00
  0.00000000E+00  0.00000000E+00  0.00000000E+00
  0.00000000E+00  0.00000000E+00  0.00000000E+00
  0.00000000E+00  0.00000000E+00  0.00000000E+00
  0.00000000E+00  0.00000000E+00  0.00000000E+00
  0.00000000E+00  0.00000000E+00  0.00000000E+00
  0.00000000E+00  0.00000000E+00  0.00000000E+00
  0.00000000E+00  0.00000000E+00  0.00000000E+00
  0.00000000E+00  0.00000000E+00  0.00000000E+00
  0.00000000E+00  0.00000000E+00  0.00000000E+00
  0.00000000E+00  0.00000000E+00  0.00000000E+00
  0.00000000E+00  0.00000000E+00  0.00000000E+00
  0.00000000E+00  0.00000000E+00  0.00000000E+00
  0.00000000E+00  0.00000000E+00  0.00000000E+00
  0.00000000E+00  0.00000000E+00  0.00000000E+00
  0.00000000E+00  0.00000000E+00  0.00000000E+00
  0.00000000E+00  0.00000000E+00  0.00000000E+00
  0.00000000E+00  0.00000000E+00  0.00000000E+00
  0.00000000E+00  0.00000000E+00  0.00000000E+00
  0.00000000E+00  0.00000000E+00  0.00000000E+00
  0.00000000E+00  0.00000000E+00  0.00000000E+00
  0.00000000E+00  0.00000000E+00  0.00000000E+00
  0.00000000E+00  0.00000000E+00  0.00000000E+00
  0.00000000E+00  0.00000000E+00  0.00000000E+00
  0.00000000E+00  0.00000000E+00  0.00000000E+00
  0.00000000E+00  0.00000000E+00  0.00000000E+00
  0.00000000E+00  0.00000000E+00  0.00000000E+00
  0.00000000E+00  0.00000000E+00  0.00000000E+00
  0.00000000E+00  0.00000000E+00  0.00000000E+00
  0.00000000E+00  0.00000000E+00  0.00000000E+00
  0.00000000E+00  0.00000000E+00  0.00000000E+00
  0.00000000E+00  0.00000000E+00  0.00000000E+00
  0.00000000E+00  0.00000000E+00  0.00000000E+00
  0.00000000E+00  0.00000000E+00  0.00000000E+00
  0.00000000E+00  0.00000000E+00  0.00000000E+00
  0.00000000E+00  0.00000000E+00  0.00000000E+00
  0.00000000E+00  0.00000000E+00  0.00000000E+00
  0.00000000E+00  0.00000000E+00  0.00000000E+00
  0.00000000E+00  0.00000000E+00  0.00000000E+00
  0.00000000E+00  0.00000000E+00  0.00000000E+00
  0.00000000E+00  0.00000000E+00  0.00000000E+00
  0.00000000E+00  0.00000000E+00  0.00000000E+00
  0.00000000E+00  0.00000000E+00  0.00000000E+00
  0.00000000E+00  0.00000000E+00  0.00000000E+00
  0.00000000E+00  0.00000000E+00  0.00000000E+00
  0.00000000E+00  0.00000000E+00  0.00000000E+00
  0.00000000E+00  0.00000000E+00  0.00000000E+00
  0.00000000E+00  0.00000000E+00  0.00000000E+00
  0.00000000E+00  0.00000000E+00  0.00000000E+00
  0.00000000E+00  0.00000000E+00  0.00000000E+00
  0.00000000E+00  0.00000000E+00  0.00000000E+00
  0.00000000E+00  0.00000000E+00  0.00000000E+00
  0.00000000E+00  0.00000000E+00  0.00000000E+00
  0.00000000E+00  0.00000000E+00  0.00000000E+00
  0.00000000E+00  0.00000000E+00  0.00000000E+00
  0.00000000E+00  0.00000000E+00  0.00000000E+00
  0.00000000E+00  0.00000000E+00  0.00000000E+00
  0.00000000E+00  0.00000000E+00  0.00000000E+00
  0.00000000E+00  0.00000000E+00  0.00000000E+00
  0.00000000E+00  0.00000000E+00  0.00000000E+00
  0.00000000E+00  0.00000000E+00  0.00000000E+00
  0.00000000E+00  0.00000000E+00  0.00000000E+00
  0.00000000E+00  0.00000000E+00  0.00000000E+00
  0.00000000E+00  0.00000000E+00  0.00000000E+00
  0.00000000E+00  0.00000000E+00  0.00000000E+00
  0.00000000E+00  0.00000000E+00  0.00000000E+00
  0.00000000E+00  0.00000000E+00  0.00000000E+00
  0.00000000E+00  0.00000000E+00  0.00000000E+00
  0.00000000E+00  0.00000000E+00  0.00000000E+00
  0.00000000E+00  0.00000000E+00  0.00000000E+00
  0.00000000E+00  0.00000000E+00  0.00000000E+00
