 C Pt                                   
   1.0000000000000000     
    17.0979999999999990    0.0000000000000000    0.0000000000000000
     0.0000000000000000   19.7420000000000009    0.0000000000000000
     0.0000000000000000    0.0000000000000000   20.0000000000000000
   C    Pt
   128    10
Direct
  0.6679014730022531  0.3442502343534911  0.3876695752190703
  0.6662782806346041  0.4703062378057414  0.3729629136749804
  0.6670159435039691  0.5949637712326498  0.3770370193779504
  0.6660363326468470  0.7196618057297357  0.3815382228884150
  0.6658558474405358  0.8445051349234560  0.3843008014990145
  0.6659556170040503  0.9693372921777309  0.3849170359498151
  0.6661718700727501  0.0942270459911405  0.3842291259003947
  0.6664671095868059  0.2191609026852162  0.3846325394938396
  0.5405064591442313  0.2814049014884552  0.3922658184683410
  0.5415306196852179  0.4077292845552378  0.3761326763179044
  0.5414680508005706  0.5319648851452884  0.3750985202636645
  0.5404936649139066  0.6583365250949430  0.3771486861230577
  0.5407579530235460  0.7824787353310693  0.3816177695970064
  0.5409090783008920  0.9070805830448273  0.3843378734286559
  0.5410206082366116  0.0318997142569705  0.3854131154279263
  0.5411831960331670  0.1568261508828045  0.3871932227186107
  0.4148722153989828  0.3435923136508552  0.3814825192040277
  0.4148918390942362  0.4702626139941998  0.3844513560641155
  0.4147989274998850  0.5959708690651891  0.3756760836504081
  0.4155317635084368  0.7202150391161337  0.3775601088480011
  0.4157857595698741  0.8447549330207268  0.3825961048095393
  0.4159260677143254  0.9695414910921160  0.3845775882629303
  0.4159758128421582  0.0943800126219756  0.3856523280864315
  0.4155771615576208  0.2190422933184606  0.3852649816228708
  0.2906550147212193  0.2815423872759285  0.3818279753458640
  0.2903514964560837  0.4068787850785618  0.3804365594797338
  0.2902763986761117  0.5321821132012755  0.3806441051241227
  0.2904831239359605  0.6574363542032735  0.3801194351889017
  0.2905897347967970  0.7821387304435141  0.3822011014655398
  0.2908272072834910  0.9069667639784561  0.3835913980967853
  0.2908746669829005  0.0318282524899123  0.3842672231627919
  0.2906770045092202  0.1565910321815369  0.3840625854102476
  0.1657972988053164  0.3441029570865541  0.3820250967351764
  0.1658168687710788  0.4694388670203394  0.3828319004138889
  0.1657358694568678  0.5945807073589798  0.3833954191812731
  0.1657531784504134  0.7195584175394582  0.3837099076277762
  0.1657586875096952  0.8444792924726607  0.3838650717417664
  0.1657705101213946  0.9692906419544370  0.3838837999653810
  0.1658935777828847  0.0941455961528690  0.3836745399718004
  0.1659293619046228  0.2190783316277858  0.3830612097083461
  0.0411794197045179  0.2815452937914355  0.3817345807163344
  0.0412006669753381  0.4067121240620534  0.3817803954365397
  0.0411640487867049  0.5319695981308584  0.3832636718061347
  0.0409557714127155  0.6570091467276077  0.3847269147509867
  0.0408707110265853  0.7818593113714041  0.3845502136936110
  0.0408343249196041  0.9068351658808662  0.3840012664585071
  0.0409251148461853  0.0316721637648348  0.3835577007580974
  0.0410363398344486  0.1565989829707793  0.3826400846387980
  0.9165763713953451  0.3440837904686366  0.3787780339651792
  0.9167454477521901  0.4694477445834010  0.3795665088791654
  0.9162406532838785  0.5943777460739716  0.3826044280461147
  0.9160591109626536  0.7194022106646250  0.3843216374062539
  0.9159110158268071  0.8443198075779774  0.3843801024022963
  0.9159069330161167  0.9692578026192701  0.3840162975643617
  0.9161321915315843  0.0941390797483522  0.3823279648747621
  0.9164760055276607  0.2190159296598333  0.3799677785530364
  0.7916877120360213  0.2812658787747102  0.3787077248767968
  0.7929124886747714  0.4068752973589902  0.3781939770100749
  0.7916318732818072  0.5320476102264197  0.3767115447114983
  0.7913145919116833  0.6570236798122657  0.3814615690559430
  0.7909523311279127  0.7818258236190371  0.3842595206227896
  0.7909043613767124  0.9067547594692863  0.3845124279376133
  0.7910363093989216  0.0317299222383904  0.3836400294716744
  0.7912661820259284  0.1565441848427975  0.3811498358112020
  0.5826490358633228  0.3449393968687299  0.3891330459294520
  0.5831667172637287  0.4688217979200740  0.3699443715193488
  0.5830612054697559  0.5953781012355163  0.3785088162609204
  0.5825371076631102  0.7200797214312243  0.3800584932985290
  0.5825312277933313  0.8446788623672160  0.3837199652471639
  0.5826477227758731  0.9693756862899917  0.3849736658121748
  0.5827273604100797  0.0942508328915386  0.3855471862265797
  0.5830433060462462  0.2189307224126825  0.3888743873556481
  0.4565132747939716  0.2815521941203012  0.3857864213446120
  0.4573855724025020  0.4069848621518296  0.3834498957613644
  0.4571730300243768  0.5335093568540793  0.3788272461378956
  0.4568687879872805  0.6584232189780179  0.3744780949173533
  0.4574724021402652  0.7825159459300651  0.3807081249144282
  0.4575147797303281  0.9070778474251400  0.3839308186772792
  0.4576305208203823  0.0318801074090872  0.3854787686476330
  0.4575795802759543  0.1567377311786227  0.3865356644257612
  0.3322513040611975  0.3440188143037991  0.3800370966197403
  0.3309589671598999  0.4696524441839474  0.3814582705228460
  0.3321516704600602  0.5949376159362716  0.3784448318604282
  0.3320964524209317  0.7198577098442799  0.3799365234587971
  0.3324393242738230  0.8445952530223397  0.3826290547869980
  0.3325402989899793  0.9694545790103966  0.3841964485434675
  0.3325275396005682  0.0942550922606368  0.3846720976486243
  0.3322723322569234  0.2190775530503153  0.3836575762762263
  0.2074776208028494  0.2815497117186386  0.3823704499296897
  0.2074184779542858  0.4067861033271932  0.3816445624055995
  0.2072050067642056  0.5320650306160044  0.3823877427138231
  0.2073574049948352  0.6571611368301586  0.3826732191767274
  0.2073850593673545  0.7820150997915157  0.3834450383681361
  0.2074501526170466  0.9069040671347780  0.3837817968559487
  0.2075409294052569  0.0317740273191449  0.3839025022747499
  0.2074984909570798  0.1566543873606103  0.3835860921729542
  0.0828494501717394  0.3441530362562683  0.3820122713401192
  0.0827076117475177  0.4693759306443098  0.3828666169853029
  0.0826515417040012  0.5945337058722108  0.3842563390068470
  0.0824733114038203  0.7194575002727430  0.3844892207423522
  0.0824857526480012  0.8444449568607693  0.3841368475748508
  0.0825163066299218  0.9692165434921995  0.3839272495824755
  0.0826488851618566  0.0941249578658331  0.3832890516347888
  0.0826968423091886  0.2190504217580856  0.3826290553941754
  0.9581004412698244  0.2814782744626625  0.3799752362495608
  0.9581451148325165  0.4067366380104431  0.3800933129972570
  0.9581050560875078  0.5320347226935647  0.3819058208587566
  0.9577165387626622  0.6569743751338770  0.3843621711708999
  0.9575671226751845  0.7818218929421656  0.3845586145112347
  0.9575162073947883  0.9067376845604709  0.3841064046513613
  0.9575775475506162  0.0316988187004611  0.3834810401056377
  0.9579160956956764  0.1565885708282586  0.3816396537735299
  0.8337466351400520  0.3439300161798836  0.3778914697783557
  0.8337586955578757  0.4697106762256307  0.3772127330753123
  0.8329813156983940  0.5944142904896395  0.3804647424789545
  0.8327755395675018  0.7193920491815611  0.3837328545740519
  0.8325590671859412  0.8442443077352084  0.3844669532060383
  0.8325796494691075  0.9691969821738762  0.3841658450295527
  0.8328242300362513  0.0940672483300843  0.3822710850722108
  0.8331404277905875  0.2189264617280135  0.3792537568344582
  0.7088756211372317  0.2809588010776932  0.3831346061141565
  0.7089115742722710  0.4076813924144784  0.3796876726494739
  0.7082174727950767  0.5324606810927269  0.3739708290715781
  0.7079665415598099  0.6571807067169623  0.3799848461493941
  0.7076270922549091  0.7818768461369542  0.3838103519376261
  0.7075149436905407  0.9067988663013328  0.3846699387807801
  0.7076805181470582  0.0317423845380083  0.3842987541249087
  0.7080049769764322  0.1566118158354066  0.3827309184935169
  0.6248756439483900  0.5579341595358742  0.5791162858219369
  0.4987053389963284  0.6223933644167342  0.5928700360229437
  0.7385883946550974  0.4814870911263293  0.5753808733893366
  0.5530947729020652  0.3409411265089246  0.4939180064933018
  0.4502404295707674  0.4466530067559323  0.4886390426144197
  0.6955851723149841  0.3993929058461814  0.4864271276259203
  0.5269537322244282  0.5653848144335967  0.4786446783663986
  0.4708881001092673  0.3706136570160196  0.6009176784072221
  0.4774363708607064  0.4983443984268274  0.6039831855430022
  0.6077270784501405  0.4222289068584935  0.5903456842108180

  0.00000000E+00  0.00000000E+00  0.00000000E+00
  0.00000000E+00  0.00000000E+00  0.00000000E+00
  0.00000000E+00  0.00000000E+00  0.00000000E+00
  0.00000000E+00  0.00000000E+00  0.00000000E+00
  0.00000000E+00  0.00000000E+00  0.00000000E+00
  0.00000000E+00  0.00000000E+00  0.00000000E+00
  0.00000000E+00  0.00000000E+00  0.00000000E+00
  0.00000000E+00  0.00000000E+00  0.00000000E+00
  0.00000000E+00  0.00000000E+00  0.00000000E+00
  0.00000000E+00  0.00000000E+00  0.00000000E+00
  0.00000000E+00  0.00000000E+00  0.00000000E+00
  0.00000000E+00  0.00000000E+00  0.00000000E+00
  0.00000000E+00  0.00000000E+00  0.00000000E+00
  0.00000000E+00  0.00000000E+00  0.00000000E+00
  0.00000000E+00  0.00000000E+00  0.00000000E+00
  0.00000000E+00  0.00000000E+00  0.00000000E+00
  0.00000000E+00  0.00000000E+00  0.00000000E+00
  0.00000000E+00  0.00000000E+00  0.00000000E+00
  0.00000000E+00  0.00000000E+00  0.00000000E+00
  0.00000000E+00  0.00000000E+00  0.00000000E+00
  0.00000000E+00  0.00000000E+00  0.00000000E+00
  0.00000000E+00  0.00000000E+00  0.00000000E+00
  0.00000000E+00  0.00000000E+00  0.00000000E+00
  0.00000000E+00  0.00000000E+00  0.00000000E+00
  0.00000000E+00  0.00000000E+00  0.00000000E+00
  0.00000000E+00  0.00000000E+00  0.00000000E+00
  0.00000000E+00  0.00000000E+00  0.00000000E+00
  0.00000000E+00  0.00000000E+00  0.00000000E+00
  0.00000000E+00  0.00000000E+00  0.00000000E+00
  0.00000000E+00  0.00000000E+00  0.00000000E+00
  0.00000000E+00  0.00000000E+00  0.00000000E+00
  0.00000000E+00  0.00000000E+00  0.00000000E+00
  0.00000000E+00  0.00000000E+00  0.00000000E+00
  0.00000000E+00  0.00000000E+00  0.00000000E+00
  0.00000000E+00  0.00000000E+00  0.00000000E+00
  0.00000000E+00  0.00000000E+00  0.00000000E+00
  0.00000000E+00  0.00000000E+00  0.00000000E+00
  0.00000000E+00  0.00000000E+00  0.00000000E+00
  0.00000000E+00  0.00000000E+00  0.00000000E+00
  0.00000000E+00  0.00000000E+00  0.00000000E+00
  0.00000000E+00  0.00000000E+00  0.00000000E+00
  0.00000000E+00  0.00000000E+00  0.00000000E+00
  0.00000000E+00  0.00000000E+00  0.00000000E+00
  0.00000000E+00  0.00000000E+00  0.00000000E+00
  0.00000000E+00  0.00000000E+00  0.00000000E+00
  0.00000000E+00  0.00000000E+00  0.00000000E+00
  0.00000000E+00  0.00000000E+00  0.00000000E+00
  0.00000000E+00  0.00000000E+00  0.00000000E+00
  0.00000000E+00  0.00000000E+00  0.00000000E+00
  0.00000000E+00  0.00000000E+00  0.00000000E+00
  0.00000000E+00  0.00000000E+00  0.00000000E+00
  0.00000000E+00  0.00000000E+00  0.00000000E+00
  0.00000000E+00  0.00000000E+00  0.00000000E+00
  0.00000000E+00  0.00000000E+00  0.00000000E+00
  0.00000000E+00  0.00000000E+00  0.00000000E+00
  0.00000000E+00  0.00000000E+00  0.00000000E+00
  0.00000000E+00  0.00000000E+00  0.00000000E+00
  0.00000000E+00  0.00000000E+00  0.00000000E+00
  0.00000000E+00  0.00000000E+00  0.00000000E+00
  0.00000000E+00  0.00000000E+00  0.00000000E+00
  0.00000000E+00  0.00000000E+00  0.00000000E+00
  0.00000000E+00  0.00000000E+00  0.00000000E+00
  0.00000000E+00  0.00000000E+00  0.00000000E+00
  0.00000000E+00  0.00000000E+00  0.00000000E+00
  0.00000000E+00  0.00000000E+00  0.00000000E+00
  0.00000000E+00  0.00000000E+00  0.00000000E+00
  0.00000000E+00  0.00000000E+00  0.00000000E+00
  0.00000000E+00  0.00000000E+00  0.00000000E+00
  0.00000000E+00  0.00000000E+00  0.00000000E+00
  0.00000000E+00  0.00000000E+00  0.00000000E+00
  0.00000000E+00  0.00000000E+00  0.00000000E+00
  0.00000000E+00  0.00000000E+00  0.00000000E+00
  0.00000000E+00  0.00000000E+00  0.00000000E+00
  0.00000000E+00  0.00000000E+00  0.00000000E+00
  0.00000000E+00  0.00000000E+00  0.00000000E+00
  0.00000000E+00  0.00000000E+00  0.00000000E+00
  0.00000000E+00  0.00000000E+00  0.00000000E+00
  0.00000000E+00  0.00000000E+00  0.00000000E+00
  0.00000000E+00  0.00000000E+00  0.00000000E+00
  0.00000000E+00  0.00000000E+00  0.00000000E+00
  0.00000000E+00  0.00000000E+00  0.00000000E+00
  0.00000000E+00  0.00000000E+00  0.00000000E+00
  0.00000000E+00  0.00000000E+00  0.00000000E+00
  0.00000000E+00  0.00000000E+00  0.00000000E+00
  0.00000000E+00  0.00000000E+00  0.00000000E+00
  0.00000000E+00  0.00000000E+00  0.00000000E+00
  0.00000000E+00  0.00000000E+00  0.00000000E+00
  0.00000000E+00  0.00000000E+00  0.00000000E+00
  0.00000000E+00  0.00000000E+00  0.00000000E+00
  0.00000000E+00  0.00000000E+00  0.00000000E+00
  0.00000000E+00  0.00000000E+00  0.00000000E+00
  0.00000000E+00  0.00000000E+00  0.00000000E+00
  0.00000000E+00  0.00000000E+00  0.00000000E+00
  0.00000000E+00  0.00000000E+00  0.00000000E+00
  0.00000000E+00  0.00000000E+00  0.00000000E+00
  0.00000000E+00  0.00000000E+00  0.00000000E+00
  0.00000000E+00  0.00000000E+00  0.00000000E+00
  0.00000000E+00  0.00000000E+00  0.00000000E+00
  0.00000000E+00  0.00000000E+00  0.00000000E+00
  0.00000000E+00  0.00000000E+00  0.00000000E+00
  0.00000000E+00  0.00000000E+00  0.00000000E+00
  0.00000000E+00  0.00000000E+00  0.00000000E+00
  0.00000000E+00  0.00000000E+00  0.00000000E+00
  0.00000000E+00  0.00000000E+00  0.00000000E+00
  0.00000000E+00  0.00000000E+00  0.00000000E+00
  0.00000000E+00  0.00000000E+00  0.00000000E+00
  0.00000000E+00  0.00000000E+00  0.00000000E+00
  0.00000000E+00  0.00000000E+00  0.00000000E+00
  0.00000000E+00  0.00000000E+00  0.00000000E+00
  0.00000000E+00  0.00000000E+00  0.00000000E+00
  0.00000000E+00  0.00000000E+00  0.00000000E+00
  0.00000000E+00  0.00000000E+00  0.00000000E+00
  0.00000000E+00  0.00000000E+00  0.00000000E+00
  0.00000000E+00  0.00000000E+00  0.00000000E+00
  0.00000000E+00  0.00000000E+00  0.00000000E+00
  0.00000000E+00  0.00000000E+00  0.00000000E+00
  0.00000000E+00  0.00000000E+00  0.00000000E+00
  0.00000000E+00  0.00000000E+00  0.00000000E+00
  0.00000000E+00  0.00000000E+00  0.00000000E+00
  0.00000000E+00  0.00000000E+00  0.00000000E+00
  0.00000000E+00  0.00000000E+00  0.00000000E+00
  0.00000000E+00  0.00000000E+00  0.00000000E+00
  0.00000000E+00  0.00000000E+00  0.00000000E+00
  0.00000000E+00  0.00000000E+00  0.00000000E+00
  0.00000000E+00  0.00000000E+00  0.00000000E+00
  0.00000000E+00  0.00000000E+00  0.00000000E+00
  0.00000000E+00  0.00000000E+00  0.00000000E+00
  0.00000000E+00  0.00000000E+00  0.00000000E+00
  0.00000000E+00  0.00000000E+00  0.00000000E+00
  0.00000000E+00  0.00000000E+00  0.00000000E+00
  0.00000000E+00  0.00000000E+00  0.00000000E+00
  0.00000000E+00  0.00000000E+00  0.00000000E+00
  0.00000000E+00  0.00000000E+00  0.00000000E+00
  0.00000000E+00  0.00000000E+00  0.00000000E+00
  0.00000000E+00  0.00000000E+00  0.00000000E+00
  0.00000000E+00  0.00000000E+00  0.00000000E+00
  0.00000000E+00  0.00000000E+00  0.00000000E+00
  0.00000000E+00  0.00000000E+00  0.00000000E+00
