 C Pt                                   
   1.0000000000000000     
    17.0979999999999990    0.0000000000000000    0.0000000000000000
     0.0000000000000000   19.7420000000000009    0.0000000000000000
     0.0000000000000000    0.0000000000000000   20.0000000000000000
   C    Pt
   128    10
Direct
  0.6667150678310054  0.3431609604876387  0.3740872109190019
  0.6663442767009463  0.4675125818989242  0.3730105331523709
  0.6675779007335250  0.5939260611649874  0.3869822356788504
  0.6667574102728457  0.7190909786878709  0.3816422057284613
  0.6663852643970409  0.8440123800446204  0.3809556054585910
  0.6663218589065520  0.9688036738108149  0.3820156775371998
  0.6664476903557017  0.0937384022468855  0.3826357221139063
  0.6665387195911416  0.2185540370663440  0.3799521978077364
  0.5414822067737703  0.2809288318245304  0.3794444648407947
  0.5424984995335010  0.4060467024896445  0.3753863622036858
  0.5410119425600439  0.5307075809975819  0.3795159977214231
  0.5409797869237564  0.6581881161837987  0.3760813639300218
  0.5412080233222840  0.7819695090594563  0.3784194056523337
  0.5413460660471251  0.9066577020792259  0.3808552088287694
  0.5414430236541412  0.0313707857013053  0.3825202422883126
  0.5413762764683392  0.1561685254982805  0.3819984686569555
  0.4162853894786396  0.3432537087318117  0.3869134778517255
  0.4156031876253832  0.4695623592006729  0.3799987152960499
  0.4159035112817841  0.5945441434511445  0.3808732365928706
  0.4159103616037907  0.7200652292818068  0.3758682628506183
  0.4160834557544969  0.8443811185326063  0.3793819636142808
  0.4163178604462301  0.9690193597259171  0.3816084422605534
  0.4164781561839350  0.0938098819612126  0.3823299105344007
  0.4163589211672204  0.2186261380575456  0.3830605605600541
  0.2913692321407577  0.2812405684436305  0.3835918310305126
  0.2910454767428121  0.4063442092018916  0.3834751220451685
  0.2906417163287779  0.5312386535996115  0.3834957402891549
  0.2904071557444924  0.6573170908805794  0.3820045322701143
  0.2909947874746796  0.7818630805973181  0.3799724542440616
  0.2912335654773623  0.9066409159023049  0.3812174117591368
  0.2913342391280963  0.0314468212399977  0.3818693342330295
  0.2914041123926575  0.1563000865523627  0.3821731624558393
  0.1663655668430933  0.3436412789104152  0.3825635185284191
  0.1662146318364012  0.4687677366432795  0.3831370432898036
  0.1660758961209935  0.5939534215462129  0.3835557221489669
  0.1659738081193986  0.7192055830730638  0.3818784982813499
  0.1661586741581464  0.8441026624493237  0.3817172454162240
  0.1663671757802734  0.9689760704593688  0.3818823088055545
  0.1664770697357543  0.0937875852156504  0.3815602332293876
  0.1663688301496736  0.2186614332439677  0.3815984245709048
  0.0414849991332121  0.2810942642123508  0.3819550648847708
  0.0414722752349543  0.4060796310193425  0.3815982852882935
  0.0413801869758462  0.5311862003771003  0.3818906713154456
  0.0413348355209515  0.6564020501315022  0.3817479620734385
  0.0413050018642072  0.7814359789661393  0.3814322404457844
  0.0412739000800528  0.9064425447965099  0.3817727424070794
  0.0413654726603198  0.0312968678543439  0.3818523226231856
  0.0413923035120996  0.1561537710831900  0.3818459908584090
  0.9165443123205179  0.3435799901703089  0.3808600400647917
  0.9167752182161687  0.4684444626318995  0.3798515113471051
  0.9166122099232286  0.5937590363321499  0.3812950782430840
  0.9165522995562650  0.7187940282817035  0.3814555268818724
  0.9163509033797363  0.8439393959083759  0.3815234437171507
  0.9164147473242948  0.9687769266599584  0.3818343450367784
  0.9164393027609445  0.0936852434162819  0.3823781175433810
  0.9164605106143467  0.2185422792892962  0.3824575701248831
  0.7915143384207274  0.2809510387907257  0.3797595733572065
  0.7918896165071319  0.4058611320243157  0.3762790321073747
  0.7928152877364536  0.5308761553852761  0.3815019706463979
  0.7919072190185742  0.6565237904487933  0.3828404894567732
  0.7914741901426379  0.7813758069679124  0.3820423050715176
  0.7914053749767583  0.9062977526852748  0.3816882372594629
  0.7914007517125071  0.0312759290585044  0.3824374570926082
  0.7914108120634326  0.1561576246553571  0.3822703903423197
  0.5835156398485862  0.3432582754288238  0.3752662641046732
  0.5835532019471984  0.4677794169042376  0.3718582142913356
  0.5824898043651285  0.5949133276922256  0.3834697709000884
  0.5829925770648567  0.7197612341987484  0.3781995380031413
  0.5830673760416635  0.8442588320434021  0.3802017260687153
  0.5830653932730723  0.9689126754815121  0.3819119073007075
  0.5830313472390148  0.0938507864168582  0.3826112042577324
  0.5831231954599417  0.2186420275219964  0.3802716640363110
  0.4582240194441854  0.2808934803765927  0.3832850082701919
  0.4586005776075858  0.4066411276147123  0.3862907950649871
  0.4569909029045431  0.5309138031623302  0.3759884642647851
  0.4577755932520270  0.6580408099724994  0.3747180227241947
  0.4579059061143390  0.7821003505599401  0.3774983434178036
  0.4579332600935255  0.9067153107247086  0.3806768948075901
  0.4579706484139614  0.0314149495554217  0.3822701534988631
  0.4581199542113907  0.1561624779262581  0.3823059816776394
  0.3326678680877638  0.3436447839413010  0.3850724460599616
  0.3322785988892902  0.4690334647171103  0.3819776232775083
  0.3320411038221606  0.5943998788859000  0.3842845169824640
  0.3322317151356285  0.7196504886854566  0.3787490680461892
  0.3328930352482914  0.8443549930832459  0.3799955824058819
  0.3330460204708794  0.9689980461225894  0.3816112412091377
  0.3330639589860200  0.0938631591366183  0.3820956282094836
  0.3330871288233315  0.2186322855995246  0.3831635438007200
  0.2080160135011570  0.2811983562689058  0.3823656138133560
  0.2080528963534748  0.4062242944581088  0.3831571959979005
  0.2075078511813853  0.5313732247964170  0.3837656803680830
  0.2076131589012732  0.6566944175100972  0.3828184395648758
  0.2076527394994084  0.7816250342175224  0.3813959335890393
  0.2079065697823111  0.9065732821476842  0.3817217481477129
  0.2079423108691998  0.0313705061969758  0.3817538766003414
  0.2080869723852085  0.1562213530152369  0.3816181054432893
  0.0831101262672884  0.3436204416473110  0.3819845963609899
  0.0830096689775884  0.4686806726111941  0.3822042934385131
  0.0829776189498130  0.5938239458686970  0.3825104418421127
  0.0827769489384233  0.7190062104290763  0.3816408387881403
  0.0829322776429427  0.8439509600770266  0.3817103651040091
  0.0830421807126518  0.9688698409428362  0.3818931002301118
  0.0830570818279637  0.0937571129011342  0.3816714976094076
  0.0830931509307713  0.2186678069961850  0.3816880097063650
  0.9581202162849287  0.2810759342137313  0.3820466271290826
  0.9583437294812275  0.4059848856634410  0.3805555187196699
  0.9582839487271116  0.5310939458695424  0.3809763443002291
  0.9581692708280399  0.6563732809451750  0.3814349455644764
  0.9580099479588107  0.7813623594072876  0.3813560259890991
  0.9579881939895843  0.9063462292257085  0.3816273781572056
  0.9580157595070601  0.0312403351942128  0.3820132367222824
  0.9580971919781047  0.1561392698837031  0.3824016275048694
  0.8332568961682936  0.3435058291718028  0.3790347059787447
  0.8337914095975271  0.4682584094485871  0.3784121733569521
  0.8336690106156713  0.5936963422654000  0.3820355687589674
  0.8332791698835718  0.7188684743422844  0.3820455249919963
  0.8331093955782458  0.8438869071945123  0.3816896606929288
  0.8330240906630795  0.9687614443217470  0.3819566493391723
  0.8330573579786630  0.0936424262042789  0.3825666080937037
  0.8331803204130531  0.2185288070195305  0.3819381868197888
  0.7082916611085573  0.2808679317121319  0.3778038088960659
  0.7084678749675306  0.4055905327630263  0.3728376761591376
  0.7087760552744191  0.5303143642745568  0.3832721235658167
  0.7088278224661437  0.6569787307066158  0.3840531515439760
  0.7081607215496756  0.7814372484212164  0.3816556124430711
  0.7080149831575075  0.9064034897802385  0.3814861966831830
  0.7080642358835812  0.0312753791134245  0.3826138562188807
  0.7081425356450576  0.1561366527497999  0.3818644380512781
  0.4658195159721200  0.3996847854096606  0.4988834375770312
  0.6938376447131003  0.5333453478847029  0.4935735605856303
  0.5030853403723712  0.4017241997398778  0.6226422725744875
  0.6094432088452135  0.5388280562475067  0.6074473639073238
  0.7298079513590923  0.4614047544504586  0.5962663266071394
  0.5526126300842162  0.5753457693561091  0.4840162398820652
  0.4110755575974072  0.6104005025418257  0.4960394556044865
  0.5022574082649540  0.6305342134716795  0.5994237934279976
  0.4541317178946148  0.5095708549348588  0.5675199499474992
  0.6079012216357836  0.4244131674964107  0.5354362385555639

  0.00000000E+00  0.00000000E+00  0.00000000E+00
  0.00000000E+00  0.00000000E+00  0.00000000E+00
  0.00000000E+00  0.00000000E+00  0.00000000E+00
  0.00000000E+00  0.00000000E+00  0.00000000E+00
  0.00000000E+00  0.00000000E+00  0.00000000E+00
  0.00000000E+00  0.00000000E+00  0.00000000E+00
  0.00000000E+00  0.00000000E+00  0.00000000E+00
  0.00000000E+00  0.00000000E+00  0.00000000E+00
  0.00000000E+00  0.00000000E+00  0.00000000E+00
  0.00000000E+00  0.00000000E+00  0.00000000E+00
  0.00000000E+00  0.00000000E+00  0.00000000E+00
  0.00000000E+00  0.00000000E+00  0.00000000E+00
  0.00000000E+00  0.00000000E+00  0.00000000E+00
  0.00000000E+00  0.00000000E+00  0.00000000E+00
  0.00000000E+00  0.00000000E+00  0.00000000E+00
  0.00000000E+00  0.00000000E+00  0.00000000E+00
  0.00000000E+00  0.00000000E+00  0.00000000E+00
  0.00000000E+00  0.00000000E+00  0.00000000E+00
  0.00000000E+00  0.00000000E+00  0.00000000E+00
  0.00000000E+00  0.00000000E+00  0.00000000E+00
  0.00000000E+00  0.00000000E+00  0.00000000E+00
  0.00000000E+00  0.00000000E+00  0.00000000E+00
  0.00000000E+00  0.00000000E+00  0.00000000E+00
  0.00000000E+00  0.00000000E+00  0.00000000E+00
  0.00000000E+00  0.00000000E+00  0.00000000E+00
  0.00000000E+00  0.00000000E+00  0.00000000E+00
  0.00000000E+00  0.00000000E+00  0.00000000E+00
  0.00000000E+00  0.00000000E+00  0.00000000E+00
  0.00000000E+00  0.00000000E+00  0.00000000E+00
  0.00000000E+00  0.00000000E+00  0.00000000E+00
  0.00000000E+00  0.00000000E+00  0.00000000E+00
  0.00000000E+00  0.00000000E+00  0.00000000E+00
  0.00000000E+00  0.00000000E+00  0.00000000E+00
  0.00000000E+00  0.00000000E+00  0.00000000E+00
  0.00000000E+00  0.00000000E+00  0.00000000E+00
  0.00000000E+00  0.00000000E+00  0.00000000E+00
  0.00000000E+00  0.00000000E+00  0.00000000E+00
  0.00000000E+00  0.00000000E+00  0.00000000E+00
  0.00000000E+00  0.00000000E+00  0.00000000E+00
  0.00000000E+00  0.00000000E+00  0.00000000E+00
  0.00000000E+00  0.00000000E+00  0.00000000E+00
  0.00000000E+00  0.00000000E+00  0.00000000E+00
  0.00000000E+00  0.00000000E+00  0.00000000E+00
  0.00000000E+00  0.00000000E+00  0.00000000E+00
  0.00000000E+00  0.00000000E+00  0.00000000E+00
  0.00000000E+00  0.00000000E+00  0.00000000E+00
  0.00000000E+00  0.00000000E+00  0.00000000E+00
  0.00000000E+00  0.00000000E+00  0.00000000E+00
  0.00000000E+00  0.00000000E+00  0.00000000E+00
  0.00000000E+00  0.00000000E+00  0.00000000E+00
  0.00000000E+00  0.00000000E+00  0.00000000E+00
  0.00000000E+00  0.00000000E+00  0.00000000E+00
  0.00000000E+00  0.00000000E+00  0.00000000E+00
  0.00000000E+00  0.00000000E+00  0.00000000E+00
  0.00000000E+00  0.00000000E+00  0.00000000E+00
  0.00000000E+00  0.00000000E+00  0.00000000E+00
  0.00000000E+00  0.00000000E+00  0.00000000E+00
  0.00000000E+00  0.00000000E+00  0.00000000E+00
  0.00000000E+00  0.00000000E+00  0.00000000E+00
  0.00000000E+00  0.00000000E+00  0.00000000E+00
  0.00000000E+00  0.00000000E+00  0.00000000E+00
  0.00000000E+00  0.00000000E+00  0.00000000E+00
  0.00000000E+00  0.00000000E+00  0.00000000E+00
  0.00000000E+00  0.00000000E+00  0.00000000E+00
  0.00000000E+00  0.00000000E+00  0.00000000E+00
  0.00000000E+00  0.00000000E+00  0.00000000E+00
  0.00000000E+00  0.00000000E+00  0.00000000E+00
  0.00000000E+00  0.00000000E+00  0.00000000E+00
  0.00000000E+00  0.00000000E+00  0.00000000E+00
  0.00000000E+00  0.00000000E+00  0.00000000E+00
  0.00000000E+00  0.00000000E+00  0.00000000E+00
  0.00000000E+00  0.00000000E+00  0.00000000E+00
  0.00000000E+00  0.00000000E+00  0.00000000E+00
  0.00000000E+00  0.00000000E+00  0.00000000E+00
  0.00000000E+00  0.00000000E+00  0.00000000E+00
  0.00000000E+00  0.00000000E+00  0.00000000E+00
  0.00000000E+00  0.00000000E+00  0.00000000E+00
  0.00000000E+00  0.00000000E+00  0.00000000E+00
  0.00000000E+00  0.00000000E+00  0.00000000E+00
  0.00000000E+00  0.00000000E+00  0.00000000E+00
  0.00000000E+00  0.00000000E+00  0.00000000E+00
  0.00000000E+00  0.00000000E+00  0.00000000E+00
  0.00000000E+00  0.00000000E+00  0.00000000E+00
  0.00000000E+00  0.00000000E+00  0.00000000E+00
  0.00000000E+00  0.00000000E+00  0.00000000E+00
  0.00000000E+00  0.00000000E+00  0.00000000E+00
  0.00000000E+00  0.00000000E+00  0.00000000E+00
  0.00000000E+00  0.00000000E+00  0.00000000E+00
  0.00000000E+00  0.00000000E+00  0.00000000E+00
  0.00000000E+00  0.00000000E+00  0.00000000E+00
  0.00000000E+00  0.00000000E+00  0.00000000E+00
  0.00000000E+00  0.00000000E+00  0.00000000E+00
  0.00000000E+00  0.00000000E+00  0.00000000E+00
  0.00000000E+00  0.00000000E+00  0.00000000E+00
  0.00000000E+00  0.00000000E+00  0.00000000E+00
  0.00000000E+00  0.00000000E+00  0.00000000E+00
  0.00000000E+00  0.00000000E+00  0.00000000E+00
  0.00000000E+00  0.00000000E+00  0.00000000E+00
  0.00000000E+00  0.00000000E+00  0.00000000E+00
  0.00000000E+00  0.00000000E+00  0.00000000E+00
  0.00000000E+00  0.00000000E+00  0.00000000E+00
  0.00000000E+00  0.00000000E+00  0.00000000E+00
  0.00000000E+00  0.00000000E+00  0.00000000E+00
  0.00000000E+00  0.00000000E+00  0.00000000E+00
  0.00000000E+00  0.00000000E+00  0.00000000E+00
  0.00000000E+00  0.00000000E+00  0.00000000E+00
  0.00000000E+00  0.00000000E+00  0.00000000E+00
  0.00000000E+00  0.00000000E+00  0.00000000E+00
  0.00000000E+00  0.00000000E+00  0.00000000E+00
  0.00000000E+00  0.00000000E+00  0.00000000E+00
  0.00000000E+00  0.00000000E+00  0.00000000E+00
  0.00000000E+00  0.00000000E+00  0.00000000E+00
  0.00000000E+00  0.00000000E+00  0.00000000E+00
  0.00000000E+00  0.00000000E+00  0.00000000E+00
  0.00000000E+00  0.00000000E+00  0.00000000E+00
  0.00000000E+00  0.00000000E+00  0.00000000E+00
  0.00000000E+00  0.00000000E+00  0.00000000E+00
  0.00000000E+00  0.00000000E+00  0.00000000E+00
  0.00000000E+00  0.00000000E+00  0.00000000E+00
  0.00000000E+00  0.00000000E+00  0.00000000E+00
  0.00000000E+00  0.00000000E+00  0.00000000E+00
  0.00000000E+00  0.00000000E+00  0.00000000E+00
  0.00000000E+00  0.00000000E+00  0.00000000E+00
  0.00000000E+00  0.00000000E+00  0.00000000E+00
  0.00000000E+00  0.00000000E+00  0.00000000E+00
  0.00000000E+00  0.00000000E+00  0.00000000E+00
  0.00000000E+00  0.00000000E+00  0.00000000E+00
  0.00000000E+00  0.00000000E+00  0.00000000E+00
  0.00000000E+00  0.00000000E+00  0.00000000E+00
  0.00000000E+00  0.00000000E+00  0.00000000E+00
  0.00000000E+00  0.00000000E+00  0.00000000E+00
  0.00000000E+00  0.00000000E+00  0.00000000E+00
  0.00000000E+00  0.00000000E+00  0.00000000E+00
  0.00000000E+00  0.00000000E+00  0.00000000E+00
  0.00000000E+00  0.00000000E+00  0.00000000E+00
  0.00000000E+00  0.00000000E+00  0.00000000E+00
  0.00000000E+00  0.00000000E+00  0.00000000E+00
  0.00000000E+00  0.00000000E+00  0.00000000E+00
