 C Pt                                   
   1.0000000000000000     
    17.0979999999999990    0.0000000000000000    0.0000000000000000
     0.0000000000000000   19.7420000000000009    0.0000000000000000
     0.0000000000000000    0.0000000000000000   20.0000000000000000
   C    Pt
   128    13
Direct
  0.4163358067785425  0.9690789100260093  0.3398093999637012
  0.4163453678600949  0.0939702910167022  0.3398773356365072
  0.4163246816397997  0.2186573824744888  0.3378019348388205
  0.4155375672544030  0.3432609849099424  0.3382154402242287
  0.4154445466835370  0.4698317366157098  0.3300027522497927
  0.4164919831417966  0.5945581526914128  0.3341116714059161
  0.4162914593347165  0.7201529949455659  0.3283208976351809
  0.4163024064471382  0.8445681450330591  0.3345443622058765
  0.2913717118816223  0.9067686512457265  0.3387486074986369
  0.2912944748279093  0.0316186941773821  0.3406904280272153
  0.2912625115179395  0.1564632414922462  0.3394157568963317
  0.2908806240114745  0.2813136732136183  0.3368939061648209
  0.2906809405491409  0.4064215011861526  0.3333721570218290
  0.2903942323713095  0.5310193028335650  0.3346393003816053
  0.2904847567371994  0.6576207549756200  0.3349976769522276
  0.2911063427931358  0.7820204737983494  0.3341728732339197
  0.1663523899815671  0.9691045851967095  0.3403853969025204
  0.1663429755836909  0.0939845391506092  0.3403058378161676
  0.1661447713360798  0.2188652166001390  0.3392217759007604
  0.1660223428858670  0.3438994401276690  0.3380691728665135
  0.1658648787205009  0.4689273219784199  0.3374984934997889
  0.1661430118494233  0.5941300004958256  0.3388512724320351
  0.1661209081244624  0.7194169218234182  0.3382651151523243
  0.1662767164061253  0.8442100517589172  0.3393446056783770
  0.0413509587267981  0.9065719537647553  0.3402197096285423
  0.0413159229930029  0.0314723188348688  0.3400501620238177
  0.0412363572563365  0.1563910750554874  0.3400639210578534
  0.0412218482182813  0.2814318213105556  0.3399310188907356
  0.0411857659646916  0.4064586339512691  0.3399829487799739
  0.0412697582310108  0.5315234813928950  0.3404312304753157
  0.0413680138476268  0.6566850013925567  0.3403953623241349
  0.0413476190261944  0.7816828340158614  0.3401068138791867
  0.9163856882721286  0.9689631425846286  0.3400558471515924
  0.9164515736912148  0.0939506292706737  0.3398977402506600
  0.9164665895824422  0.2188728375730226  0.3399396980225022
  0.9163326522749422  0.3438667945163298  0.3407109534734397
  0.9162581371076508  0.4690922898332395  0.3416545965739417
  0.9165379224255580  0.5941311223535386  0.3412039035736101
  0.9164843200574236  0.7190966536500337  0.3399809658722496
  0.9163657337696757  0.8441079489195388  0.3400211458798868
  0.7914441977377901  0.9065553640471720  0.3400678970506704
  0.7913669529791437  0.0314340762915354  0.3401532040426525
  0.7915067232212533  0.1563473185509417  0.3394372035855444
  0.7915839138825991  0.2813230250769034  0.3403534108589336
  0.7915614896156485  0.4063047506680679  0.3437949933616974
  0.7918447443851702  0.5317735651280044  0.3454775911978478
  0.7914450536543481  0.6566978292368748  0.3409276681075840
  0.7914927331992443  0.7816240534064487  0.3391451511168862
  0.6664523787504197  0.9690790544894627  0.3402723521240600
  0.6664913429885652  0.0938666790473788  0.3395740563205875
  0.6666507251542354  0.2187472385499910  0.3383604413096652
  0.6666009962420247  0.3435986643733848  0.3414222972937388
  0.6663216432163758  0.4687357391332349  0.3517691343578829
  0.6666009056126049  0.5949302516666988  0.3459691025774214
  0.6664981315859312  0.7194532620750610  0.3376049171012074
  0.6664114120262503  0.8442159469363455  0.3379517467287970
  0.5413626157111032  0.9067493128365922  0.3381087059028886
  0.5413996962988185  0.0315404366855998  0.3402677610913173
  0.5414440815600258  0.1562705263357045  0.3384019994511760
  0.5418552869617301  0.2810428500071289  0.3372207825212191
  0.5418873831092933  0.4061221978772434  0.3402673361180430
  0.5400282354555623  0.5313062325556391  0.3425236890994506
  0.5411458680916408  0.6577952436955303  0.3341164767507367
  0.5414309252681663  0.7820813594360514  0.3328633882955031
  0.3330404690624760  0.9691330641349883  0.3400570224348253
  0.3330178760059319  0.0939863265220741  0.3402166202683891
  0.3328053092891711  0.2188308581792351  0.3380416258587340
  0.3318916525949213  0.3437711690364467  0.3353043237367456
  0.3321652330456790  0.4691275305352328  0.3308682142259134
  0.3321134175490074  0.5943067811448638  0.3373799349528578
  0.3324665215967177  0.7199419217402898  0.3310171842196095
  0.3329661375854386  0.8444477574641610  0.3355463493614210
  0.2078963038137684  0.9066787831116486  0.3396668126921167
  0.2079845593630019  0.0314960615483661  0.3405821708538549
  0.2079275463176088  0.1564996858640574  0.3397113978876249
  0.2075031444710616  0.2813374550492245  0.3379143576196267
  0.2076621152181076  0.4064335331507309  0.3362192990870566
  0.2075647934397443  0.5314887447321270  0.3371158461518949
  0.2077094288706083  0.6569184103209394  0.3374891006319019
  0.2078148852679382  0.7818730112715746  0.3374638018339644
  0.0830376797378673  0.9690660329625282  0.3402206111543208
  0.0829598091171695  0.0939515751646704  0.3401483838193459
  0.0828681189524744  0.2188687379209602  0.3398315263208618
  0.0828514135160704  0.3439177104712377  0.3395272533191332
  0.0828066613183015  0.4689802627430384  0.3394950061094470
  0.0830676936755812  0.5940664662342414  0.3402353147427654
  0.0828276744116901  0.7191748069944413  0.3398371955372771
  0.0830158128135623  0.8440921644241255  0.3401315654818903
  0.9579682998078797  0.9065345688596960  0.3401189361846945
  0.9580735152480168  0.0314077035316501  0.3399453419001822
  0.9580627569181187  0.1563691194698025  0.3399576170932535
  0.9579979167526345  0.2813838929650872  0.3401477595414488
  0.9579903719075299  0.4064469228503201  0.3408353311361688
  0.9581370642659562  0.5315978542387252  0.3412052129241678
  0.9582087513239970  0.6566110963626840  0.3404841583054929
  0.9579989936866463  0.7815540400586803  0.3400342652383683
  0.8331266007634083  0.9689862646533101  0.3402354196292403
  0.8330630548724018  0.0939042387433397  0.3398195684649292
  0.8331005347843438  0.2187701011316939  0.3397296764080908
  0.8332071464402717  0.3438358962010499  0.3413973989504576
  0.8331973442349704  0.4691373141496788  0.3437186470888670
  0.8332469897783102  0.5942489321466742  0.3424516008508003
  0.8331354813068778  0.7191084872861163  0.3396139960763930
  0.8331638489660096  0.8440483749552652  0.3397416828453880
  0.7080173302569136  0.9065718314361469  0.3397240125733781
  0.7081188303867393  0.0314482310094925  0.3402616936646664
  0.7082502946917568  0.1563487070565821  0.3389492288050157
  0.7083452928571325  0.2811297538344005  0.3397148588934941
  0.7087309848365508  0.4057926608493921  0.3459053608476820
  0.7084934389305861  0.5324558849595605  0.3496793485686193
  0.7080841836382497  0.6568379811505654  0.3410689422695160
  0.7080776797910624  0.7817503453672351  0.3379645290871808
  0.5831211291600016  0.9690650554556827  0.3400186789420106
  0.5830413019649721  0.0939079529943452  0.3395564833877148
  0.5832616609840074  0.2186915547255192  0.3376047963969762
  0.5836313645743967  0.3434220797727451  0.3390581915173500
  0.5824877820725630  0.4686235962616284  0.3445424214532525
  0.5820419641273686  0.5951053055101373  0.3464327920119160
  0.5831444522925024  0.7197303306123654  0.3340708293725813
  0.5832345371905603  0.8443347930577297  0.3362352322052803
  0.4579877223679411  0.9067723785368802  0.3377190661298459
  0.4581131060923030  0.0315097571644912  0.3403329502571106
  0.4581115513977217  0.1561979623094344  0.3385806738989032
  0.4581878686384763  0.2806804977929718  0.3375527141983754
  0.4574425543200161  0.4068344256354201  0.3380426882716352
  0.4576502845882887  0.5307944262069701  0.3309334746558478
  0.4584741295807596  0.6579873625370242  0.3294744719107283
  0.4580010700576198  0.7822246923800836  0.3310427977803982
  0.3824531267721465  0.5883788570554516  0.5824888225495027
  0.3692179217596227  0.4719565720544003  0.6371851707768770
  0.3489662275428200  0.3929421945443116  0.5379631312202235
  0.3896199761040440  0.6127401996958205  0.4404103881918872
  0.5434608024402420  0.5736514088103437  0.4587237908445071
  0.6532494022514119  0.5042783104103737  0.5921747939510831
  0.5466945951172338  0.4255653709724279  0.5342703716603093
  0.5176121007685629  0.4652383267813539  0.6521510244859979
  0.4215740206144457  0.4974034169218103  0.4977209722867352
  0.5293329425053692  0.5750758998077852  0.5883732549393809
  0.6528926700976077  0.4833254468229358  0.4626232290539623
  0.4511527521305312  0.3836209794924532  0.4442029201983370
  0.4738871806584835  0.6788134066253363  0.5283447947440185

  0.00000000E+00  0.00000000E+00  0.00000000E+00
  0.00000000E+00  0.00000000E+00  0.00000000E+00
  0.00000000E+00  0.00000000E+00  0.00000000E+00
  0.00000000E+00  0.00000000E+00  0.00000000E+00
  0.00000000E+00  0.00000000E+00  0.00000000E+00
  0.00000000E+00  0.00000000E+00  0.00000000E+00
  0.00000000E+00  0.00000000E+00  0.00000000E+00
  0.00000000E+00  0.00000000E+00  0.00000000E+00
  0.00000000E+00  0.00000000E+00  0.00000000E+00
  0.00000000E+00  0.00000000E+00  0.00000000E+00
  0.00000000E+00  0.00000000E+00  0.00000000E+00
  0.00000000E+00  0.00000000E+00  0.00000000E+00
  0.00000000E+00  0.00000000E+00  0.00000000E+00
  0.00000000E+00  0.00000000E+00  0.00000000E+00
  0.00000000E+00  0.00000000E+00  0.00000000E+00
  0.00000000E+00  0.00000000E+00  0.00000000E+00
  0.00000000E+00  0.00000000E+00  0.00000000E+00
  0.00000000E+00  0.00000000E+00  0.00000000E+00
  0.00000000E+00  0.00000000E+00  0.00000000E+00
  0.00000000E+00  0.00000000E+00  0.00000000E+00
  0.00000000E+00  0.00000000E+00  0.00000000E+00
  0.00000000E+00  0.00000000E+00  0.00000000E+00
  0.00000000E+00  0.00000000E+00  0.00000000E+00
  0.00000000E+00  0.00000000E+00  0.00000000E+00
  0.00000000E+00  0.00000000E+00  0.00000000E+00
  0.00000000E+00  0.00000000E+00  0.00000000E+00
  0.00000000E+00  0.00000000E+00  0.00000000E+00
  0.00000000E+00  0.00000000E+00  0.00000000E+00
  0.00000000E+00  0.00000000E+00  0.00000000E+00
  0.00000000E+00  0.00000000E+00  0.00000000E+00
  0.00000000E+00  0.00000000E+00  0.00000000E+00
  0.00000000E+00  0.00000000E+00  0.00000000E+00
  0.00000000E+00  0.00000000E+00  0.00000000E+00
  0.00000000E+00  0.00000000E+00  0.00000000E+00
  0.00000000E+00  0.00000000E+00  0.00000000E+00
  0.00000000E+00  0.00000000E+00  0.00000000E+00
  0.00000000E+00  0.00000000E+00  0.00000000E+00
  0.00000000E+00  0.00000000E+00  0.00000000E+00
  0.00000000E+00  0.00000000E+00  0.00000000E+00
  0.00000000E+00  0.00000000E+00  0.00000000E+00
  0.00000000E+00  0.00000000E+00  0.00000000E+00
  0.00000000E+00  0.00000000E+00  0.00000000E+00
  0.00000000E+00  0.00000000E+00  0.00000000E+00
  0.00000000E+00  0.00000000E+00  0.00000000E+00
  0.00000000E+00  0.00000000E+00  0.00000000E+00
  0.00000000E+00  0.00000000E+00  0.00000000E+00
  0.00000000E+00  0.00000000E+00  0.00000000E+00
  0.00000000E+00  0.00000000E+00  0.00000000E+00
  0.00000000E+00  0.00000000E+00  0.00000000E+00
  0.00000000E+00  0.00000000E+00  0.00000000E+00
  0.00000000E+00  0.00000000E+00  0.00000000E+00
  0.00000000E+00  0.00000000E+00  0.00000000E+00
  0.00000000E+00  0.00000000E+00  0.00000000E+00
  0.00000000E+00  0.00000000E+00  0.00000000E+00
  0.00000000E+00  0.00000000E+00  0.00000000E+00
  0.00000000E+00  0.00000000E+00  0.00000000E+00
  0.00000000E+00  0.00000000E+00  0.00000000E+00
  0.00000000E+00  0.00000000E+00  0.00000000E+00
  0.00000000E+00  0.00000000E+00  0.00000000E+00
  0.00000000E+00  0.00000000E+00  0.00000000E+00
  0.00000000E+00  0.00000000E+00  0.00000000E+00
  0.00000000E+00  0.00000000E+00  0.00000000E+00
  0.00000000E+00  0.00000000E+00  0.00000000E+00
  0.00000000E+00  0.00000000E+00  0.00000000E+00
  0.00000000E+00  0.00000000E+00  0.00000000E+00
  0.00000000E+00  0.00000000E+00  0.00000000E+00
  0.00000000E+00  0.00000000E+00  0.00000000E+00
  0.00000000E+00  0.00000000E+00  0.00000000E+00
  0.00000000E+00  0.00000000E+00  0.00000000E+00
  0.00000000E+00  0.00000000E+00  0.00000000E+00
  0.00000000E+00  0.00000000E+00  0.00000000E+00
  0.00000000E+00  0.00000000E+00  0.00000000E+00
  0.00000000E+00  0.00000000E+00  0.00000000E+00
  0.00000000E+00  0.00000000E+00  0.00000000E+00
  0.00000000E+00  0.00000000E+00  0.00000000E+00
  0.00000000E+00  0.00000000E+00  0.00000000E+00
  0.00000000E+00  0.00000000E+00  0.00000000E+00
  0.00000000E+00  0.00000000E+00  0.00000000E+00
  0.00000000E+00  0.00000000E+00  0.00000000E+00
  0.00000000E+00  0.00000000E+00  0.00000000E+00
  0.00000000E+00  0.00000000E+00  0.00000000E+00
  0.00000000E+00  0.00000000E+00  0.00000000E+00
  0.00000000E+00  0.00000000E+00  0.00000000E+00
  0.00000000E+00  0.00000000E+00  0.00000000E+00
  0.00000000E+00  0.00000000E+00  0.00000000E+00
  0.00000000E+00  0.00000000E+00  0.00000000E+00
  0.00000000E+00  0.00000000E+00  0.00000000E+00
  0.00000000E+00  0.00000000E+00  0.00000000E+00
  0.00000000E+00  0.00000000E+00  0.00000000E+00
  0.00000000E+00  0.00000000E+00  0.00000000E+00
  0.00000000E+00  0.00000000E+00  0.00000000E+00
  0.00000000E+00  0.00000000E+00  0.00000000E+00
  0.00000000E+00  0.00000000E+00  0.00000000E+00
  0.00000000E+00  0.00000000E+00  0.00000000E+00
  0.00000000E+00  0.00000000E+00  0.00000000E+00
  0.00000000E+00  0.00000000E+00  0.00000000E+00
  0.00000000E+00  0.00000000E+00  0.00000000E+00
  0.00000000E+00  0.00000000E+00  0.00000000E+00
  0.00000000E+00  0.00000000E+00  0.00000000E+00
  0.00000000E+00  0.00000000E+00  0.00000000E+00
  0.00000000E+00  0.00000000E+00  0.00000000E+00
  0.00000000E+00  0.00000000E+00  0.00000000E+00
  0.00000000E+00  0.00000000E+00  0.00000000E+00
  0.00000000E+00  0.00000000E+00  0.00000000E+00
  0.00000000E+00  0.00000000E+00  0.00000000E+00
  0.00000000E+00  0.00000000E+00  0.00000000E+00
  0.00000000E+00  0.00000000E+00  0.00000000E+00
  0.00000000E+00  0.00000000E+00  0.00000000E+00
  0.00000000E+00  0.00000000E+00  0.00000000E+00
  0.00000000E+00  0.00000000E+00  0.00000000E+00
  0.00000000E+00  0.00000000E+00  0.00000000E+00
  0.00000000E+00  0.00000000E+00  0.00000000E+00
  0.00000000E+00  0.00000000E+00  0.00000000E+00
  0.00000000E+00  0.00000000E+00  0.00000000E+00
  0.00000000E+00  0.00000000E+00  0.00000000E+00
  0.00000000E+00  0.00000000E+00  0.00000000E+00
  0.00000000E+00  0.00000000E+00  0.00000000E+00
  0.00000000E+00  0.00000000E+00  0.00000000E+00
  0.00000000E+00  0.00000000E+00  0.00000000E+00
  0.00000000E+00  0.00000000E+00  0.00000000E+00
  0.00000000E+00  0.00000000E+00  0.00000000E+00
  0.00000000E+00  0.00000000E+00  0.00000000E+00
  0.00000000E+00  0.00000000E+00  0.00000000E+00
  0.00000000E+00  0.00000000E+00  0.00000000E+00
  0.00000000E+00  0.00000000E+00  0.00000000E+00
  0.00000000E+00  0.00000000E+00  0.00000000E+00
  0.00000000E+00  0.00000000E+00  0.00000000E+00
  0.00000000E+00  0.00000000E+00  0.00000000E+00
  0.00000000E+00  0.00000000E+00  0.00000000E+00
  0.00000000E+00  0.00000000E+00  0.00000000E+00
  0.00000000E+00  0.00000000E+00  0.00000000E+00
  0.00000000E+00  0.00000000E+00  0.00000000E+00
  0.00000000E+00  0.00000000E+00  0.00000000E+00
  0.00000000E+00  0.00000000E+00  0.00000000E+00
  0.00000000E+00  0.00000000E+00  0.00000000E+00
  0.00000000E+00  0.00000000E+00  0.00000000E+00
  0.00000000E+00  0.00000000E+00  0.00000000E+00
  0.00000000E+00  0.00000000E+00  0.00000000E+00
  0.00000000E+00  0.00000000E+00  0.00000000E+00
  0.00000000E+00  0.00000000E+00  0.00000000E+00
  0.00000000E+00  0.00000000E+00  0.00000000E+00
