 C Pt                                   
   1.0000000000000000     
    17.0979999999999990    0.0000000000000000    0.0000000000000000
     0.0000000000000000   19.7420000000000009    0.0000000000000000
     0.0000000000000000    0.0000000000000000   20.0000000000000000
   C    Pt
   128    13
Direct
  0.4168787130358940  0.9689238663135537  0.3529118094187585
  0.4168526317547765  0.0936895943276984  0.3516261683383385
  0.4169794107956958  0.2183889549945664  0.3489497971113307
  0.4175322484706088  0.3428729564212582  0.3469672611720127
  0.4168597920687853  0.4689690301289938  0.3410079045575257
  0.4168222401269861  0.5940339921263281  0.3487242331036226
  0.4166244570319232  0.7197912734750735  0.3478656112010711
  0.4168627925907763  0.8442678864837330  0.3505941348093767
  0.2918876861510067  0.9064803377337357  0.3526420314928065
  0.2917952832090803  0.0312560980276060  0.3530579487729421
  0.2918477778690332  0.1560344946718122  0.3530749243832529
  0.2916105421557861  0.2806561243899182  0.3554318030339614
  0.2911680403744473  0.4063085920560386  0.3518521412009644
  0.2909893510762266  0.5320657472797506  0.3490378115123177
  0.2913118836447008  0.6568697450749870  0.3491831433944861
  0.2918358392643914  0.7816038695257869  0.3510313075490676
  0.1668338926541905  0.9688418484513357  0.3520142122627963
  0.1667788051301865  0.0937270530189944  0.3530596620732799
  0.1666418135511283  0.2185881980436726  0.3535541144995016
  0.1666425155438955  0.3436781526786690  0.3516972692272828
  0.1665035419457025  0.4689220349143454  0.3499296777311955
  0.1664563520906994  0.5941481461263646  0.3514253394015886
  0.1666804874768681  0.7191157788234387  0.3526931202596907
  0.1668423051060632  0.8439970127223944  0.3523651565314965
  0.0418944755255762  0.9064149962732153  0.3513232815724655
  0.0417805778090076  0.0312662302645053  0.3517452639363550
  0.0417164158223812  0.1562111264297423  0.3532796875316429
  0.0417805129518808  0.2812238706246858  0.3527166026290964
  0.0418282793205899  0.4062684584982805  0.3511736240433747
  0.0416829235627018  0.5314937992059445  0.3517143393074286
  0.0417473370213046  0.6565344565308449  0.3527954017854914
  0.0419227961797043  0.7815001338198356  0.3528328676960567
  0.9168303137325096  0.9688947844792610  0.3522390460348594
  0.9167991361335615  0.0938238356416695  0.3527920967259296
  0.9168081818829744  0.2188080745528333  0.3528716218923553
  0.9170191121249064  0.3437396525168046  0.3514814568723230
  0.9170443676452981  0.4688059775464701  0.3511499318649036
  0.9168756451563198  0.5940137164648462  0.3521567404612601
  0.9170470578025720  0.7190711946646916  0.3522427454856640
  0.9169432869532645  0.8440183863140526  0.3517829117968360
  0.7919630195426764  0.9066039658436230  0.3525255679812895
  0.7918604207946909  0.0314073159421051  0.3533275621683039
  0.7918782550663306  0.1562844631695090  0.3513681447680391
  0.7920751644650843  0.2811981772743592  0.3488348295111297
  0.7922552301742092  0.4061517955975600  0.3481036753292015
  0.7922949709200271  0.5313375580456638  0.3505074549625909
  0.7921703976815176  0.6567494821902407  0.3515439839800023
  0.7921399518221318  0.7817382910389958  0.3504082693080944
  0.6669034940587326  0.9690111736925118  0.3532105316686005
  0.6668803011117984  0.0938377583650914  0.3512684454953723
  0.6671183564797971  0.2186005729898542  0.3463132364360312
  0.6674500466520943  0.3433505067965756  0.3409571620499953
  0.6675854102269073  0.4686336040674543  0.3445620661490908
  0.6674379928069855  0.5940999644814881  0.3526213175714027
  0.6674351771735133  0.7195271610495586  0.3479882995432032
  0.6669880015095634  0.8443087883439652  0.3501181024680268
  0.5419399954387181  0.9066603504056675  0.3517832288186202
  0.5418324924442206  0.0313964027673004  0.3522121769791903
  0.5420014759852327  0.1561384684695754  0.3482375489722082
  0.5422794778108345  0.2808301515770489  0.3412089838951567
  0.5428282191000152  0.4056417478383780  0.3366014469559380
  0.5419377485385000  0.5307467626666665  0.3357546376408946
  0.5419455464081906  0.6576619920244227  0.3456979554292963
  0.5419965615843756  0.7819781830110947  0.3480843251086188
  0.3335026749159755  0.9688881305586021  0.3531309799954213
  0.3335623492302069  0.0936403234432342  0.3524910398990880
  0.3336866186420538  0.2183256801058105  0.3528454701811493
  0.3337579275193994  0.3435233320338592  0.3551291909413032
  0.3335800080891572  0.4691485990058382  0.3497543284226695
  0.3324134558368130  0.5944798337562316  0.3480900707497990
  0.3332857096367390  0.7194153573084429  0.3491662823261931
  0.3335717763436338  0.8441204600491227  0.3514794293060482
  0.2085434579438484  0.9064935775504031  0.3523276498685480
  0.2085251669006874  0.0312988732982770  0.3527497769103597
  0.2084074342062374  0.1561752624504552  0.3535897321992374
  0.2081774259811934  0.2811119862707331  0.3538362935376829
  0.2082628211356347  0.4063137097698052  0.3507403478989908
  0.2079151584772411  0.5316183898790822  0.3501094782210722
  0.2081442663502703  0.6566683376073204  0.3513418137959036
  0.2084252062583487  0.7815276304242855  0.3523132581088878
  0.0835000605678886  0.9688630697851285  0.3512627030238726
  0.0834228903138388  0.0937659158795708  0.3527558839338704
  0.0833512877580351  0.2187179113369379  0.3531474751667308
  0.0834745777455890  0.3437251292147268  0.3515783062703681
  0.0834144080311926  0.4688890067834285  0.3507870313389344
  0.0833022922304746  0.5940246968618811  0.3521794293691141
  0.0834515237838790  0.7190182500254487  0.3531969116544812
  0.0835615159000104  0.8439827102786536  0.3521920985896654
  0.9585818228586398  0.9065134325470245  0.3515801404291392
  0.9584860432153178  0.0313630714778482  0.3521108030360126
  0.9583852022253859  0.1562863887604902  0.3532898365931756
  0.9585453848523894  0.2812710225023332  0.3527189883126430
  0.9587099138746636  0.4062502349894440  0.3512722229019511
  0.9585544533118280  0.5314016837927511  0.3517737212269152
  0.9585893046255181  0.6565496147616535  0.3524868267491867
  0.9586220436537005  0.7815258577821622  0.3523584657921368
  0.8335185092789695  0.9689707123745235  0.3532219966197602
  0.8334776506827386  0.0938852384864950  0.3527412001575925
  0.8335280094104648  0.2187948751652832  0.3511833311752780
  0.8338278161613152  0.3436413778131288  0.3495283454770342
  0.8339186301605187  0.4686746803514996  0.3501258489919906
  0.8338186969099510  0.5940725916543436  0.3520648349394408
  0.8338306749376103  0.7192988266465213  0.3512342121263524
  0.8336966776299951  0.8441986886425660  0.3514558128499489
  0.7086206134390279  0.9066729179033943  0.3522840897828422
  0.7085073805701296  0.0314602494568796  0.3531877718142701
  0.7085803887871406  0.1562412743230800  0.3497224035243197
  0.7088621285823790  0.2810746342608543  0.3451400048533032
  0.7091923219564211  0.4058265574593218  0.3441199076054384
  0.7095674818584797  0.5311031313630785  0.3486024804345753
  0.7092189981228201  0.6572477639083678  0.3507019362424431
  0.7088302638005618  0.7818798547255187  0.3489746605181270
  0.5835379672411923  0.9690042245474199  0.3529132184903386
  0.5835809006003321  0.0938267316195274  0.3505109535021921
  0.5837534141396274  0.2185483694636644  0.3450351437631818
  0.5842262169270500  0.3431047437252472  0.3377564219631211
  0.5838888755265227  0.4688195247154469  0.3365558185865398
  0.5831717576708545  0.5938122454974909  0.3465874222209461
  0.5838743931032204  0.7198195480469907  0.3468975594248177
  0.5836828557540311  0.8443779213906677  0.3498114999068775
  0.4585825794587878  0.9066501899574386  0.3520117306196781
  0.4585331090242584  0.0313547160113973  0.3523311536900183
  0.4585944118850741  0.1560726878199724  0.3493493170586412
  0.4589485334629796  0.2806752247987954  0.3447000516990594
  0.4591031260326627  0.4060121659238259  0.3428653440879175
  0.4588154236717933  0.5310575429710033  0.3388585319452475
  0.4585815509877813  0.6575971714033908  0.3472324053129995
  0.4585593819009570  0.7819562927861520  0.3484370853413298
  0.5110542556818506  0.4327693251721242  0.5838556499543576
  0.5993188041178237  0.5372185547582933  0.5738183977993133
  0.3526619807459481  0.4798641842567415  0.4701730945545185
  0.5966711412237745  0.3451538100021594  0.5190505982041611
  0.4801643493666480  0.4046130233687927  0.4632954736419831
  0.6199078232289025  0.4619125998775576  0.4723481089882201
  0.4404463971994801  0.5856993563241299  0.4593184795644935
  0.4286224567692558  0.6176838941340166  0.5785421996144224
  0.5962765248679597  0.5879699341923318  0.4560984749004569
  0.3431025506064329  0.3453179965606790  0.4744395124275306
  0.5025090924177370  0.5498348962058044  0.6683430553889183
  0.3809837351941751  0.3680461828855933  0.5945834367985872
  0.3850483440084712  0.4975368117117794  0.5921059205717207

  0.00000000E+00  0.00000000E+00  0.00000000E+00
  0.00000000E+00  0.00000000E+00  0.00000000E+00
  0.00000000E+00  0.00000000E+00  0.00000000E+00
  0.00000000E+00  0.00000000E+00  0.00000000E+00
  0.00000000E+00  0.00000000E+00  0.00000000E+00
  0.00000000E+00  0.00000000E+00  0.00000000E+00
  0.00000000E+00  0.00000000E+00  0.00000000E+00
  0.00000000E+00  0.00000000E+00  0.00000000E+00
  0.00000000E+00  0.00000000E+00  0.00000000E+00
  0.00000000E+00  0.00000000E+00  0.00000000E+00
  0.00000000E+00  0.00000000E+00  0.00000000E+00
  0.00000000E+00  0.00000000E+00  0.00000000E+00
  0.00000000E+00  0.00000000E+00  0.00000000E+00
  0.00000000E+00  0.00000000E+00  0.00000000E+00
  0.00000000E+00  0.00000000E+00  0.00000000E+00
  0.00000000E+00  0.00000000E+00  0.00000000E+00
  0.00000000E+00  0.00000000E+00  0.00000000E+00
  0.00000000E+00  0.00000000E+00  0.00000000E+00
  0.00000000E+00  0.00000000E+00  0.00000000E+00
  0.00000000E+00  0.00000000E+00  0.00000000E+00
  0.00000000E+00  0.00000000E+00  0.00000000E+00
  0.00000000E+00  0.00000000E+00  0.00000000E+00
  0.00000000E+00  0.00000000E+00  0.00000000E+00
  0.00000000E+00  0.00000000E+00  0.00000000E+00
  0.00000000E+00  0.00000000E+00  0.00000000E+00
  0.00000000E+00  0.00000000E+00  0.00000000E+00
  0.00000000E+00  0.00000000E+00  0.00000000E+00
  0.00000000E+00  0.00000000E+00  0.00000000E+00
  0.00000000E+00  0.00000000E+00  0.00000000E+00
  0.00000000E+00  0.00000000E+00  0.00000000E+00
  0.00000000E+00  0.00000000E+00  0.00000000E+00
  0.00000000E+00  0.00000000E+00  0.00000000E+00
  0.00000000E+00  0.00000000E+00  0.00000000E+00
  0.00000000E+00  0.00000000E+00  0.00000000E+00
  0.00000000E+00  0.00000000E+00  0.00000000E+00
  0.00000000E+00  0.00000000E+00  0.00000000E+00
  0.00000000E+00  0.00000000E+00  0.00000000E+00
  0.00000000E+00  0.00000000E+00  0.00000000E+00
  0.00000000E+00  0.00000000E+00  0.00000000E+00
  0.00000000E+00  0.00000000E+00  0.00000000E+00
  0.00000000E+00  0.00000000E+00  0.00000000E+00
  0.00000000E+00  0.00000000E+00  0.00000000E+00
  0.00000000E+00  0.00000000E+00  0.00000000E+00
  0.00000000E+00  0.00000000E+00  0.00000000E+00
  0.00000000E+00  0.00000000E+00  0.00000000E+00
  0.00000000E+00  0.00000000E+00  0.00000000E+00
  0.00000000E+00  0.00000000E+00  0.00000000E+00
  0.00000000E+00  0.00000000E+00  0.00000000E+00
  0.00000000E+00  0.00000000E+00  0.00000000E+00
  0.00000000E+00  0.00000000E+00  0.00000000E+00
  0.00000000E+00  0.00000000E+00  0.00000000E+00
  0.00000000E+00  0.00000000E+00  0.00000000E+00
  0.00000000E+00  0.00000000E+00  0.00000000E+00
  0.00000000E+00  0.00000000E+00  0.00000000E+00
  0.00000000E+00  0.00000000E+00  0.00000000E+00
  0.00000000E+00  0.00000000E+00  0.00000000E+00
  0.00000000E+00  0.00000000E+00  0.00000000E+00
  0.00000000E+00  0.00000000E+00  0.00000000E+00
  0.00000000E+00  0.00000000E+00  0.00000000E+00
  0.00000000E+00  0.00000000E+00  0.00000000E+00
  0.00000000E+00  0.00000000E+00  0.00000000E+00
  0.00000000E+00  0.00000000E+00  0.00000000E+00
  0.00000000E+00  0.00000000E+00  0.00000000E+00
  0.00000000E+00  0.00000000E+00  0.00000000E+00
  0.00000000E+00  0.00000000E+00  0.00000000E+00
  0.00000000E+00  0.00000000E+00  0.00000000E+00
  0.00000000E+00  0.00000000E+00  0.00000000E+00
  0.00000000E+00  0.00000000E+00  0.00000000E+00
  0.00000000E+00  0.00000000E+00  0.00000000E+00
  0.00000000E+00  0.00000000E+00  0.00000000E+00
  0.00000000E+00  0.00000000E+00  0.00000000E+00
  0.00000000E+00  0.00000000E+00  0.00000000E+00
  0.00000000E+00  0.00000000E+00  0.00000000E+00
  0.00000000E+00  0.00000000E+00  0.00000000E+00
  0.00000000E+00  0.00000000E+00  0.00000000E+00
  0.00000000E+00  0.00000000E+00  0.00000000E+00
  0.00000000E+00  0.00000000E+00  0.00000000E+00
  0.00000000E+00  0.00000000E+00  0.00000000E+00
  0.00000000E+00  0.00000000E+00  0.00000000E+00
  0.00000000E+00  0.00000000E+00  0.00000000E+00
  0.00000000E+00  0.00000000E+00  0.00000000E+00
  0.00000000E+00  0.00000000E+00  0.00000000E+00
  0.00000000E+00  0.00000000E+00  0.00000000E+00
  0.00000000E+00  0.00000000E+00  0.00000000E+00
  0.00000000E+00  0.00000000E+00  0.00000000E+00
  0.00000000E+00  0.00000000E+00  0.00000000E+00
  0.00000000E+00  0.00000000E+00  0.00000000E+00
  0.00000000E+00  0.00000000E+00  0.00000000E+00
  0.00000000E+00  0.00000000E+00  0.00000000E+00
  0.00000000E+00  0.00000000E+00  0.00000000E+00
  0.00000000E+00  0.00000000E+00  0.00000000E+00
  0.00000000E+00  0.00000000E+00  0.00000000E+00
  0.00000000E+00  0.00000000E+00  0.00000000E+00
  0.00000000E+00  0.00000000E+00  0.00000000E+00
  0.00000000E+00  0.00000000E+00  0.00000000E+00
  0.00000000E+00  0.00000000E+00  0.00000000E+00
  0.00000000E+00  0.00000000E+00  0.00000000E+00
  0.00000000E+00  0.00000000E+00  0.00000000E+00
  0.00000000E+00  0.00000000E+00  0.00000000E+00
  0.00000000E+00  0.00000000E+00  0.00000000E+00
  0.00000000E+00  0.00000000E+00  0.00000000E+00
  0.00000000E+00  0.00000000E+00  0.00000000E+00
  0.00000000E+00  0.00000000E+00  0.00000000E+00
  0.00000000E+00  0.00000000E+00  0.00000000E+00
  0.00000000E+00  0.00000000E+00  0.00000000E+00
  0.00000000E+00  0.00000000E+00  0.00000000E+00
  0.00000000E+00  0.00000000E+00  0.00000000E+00
  0.00000000E+00  0.00000000E+00  0.00000000E+00
  0.00000000E+00  0.00000000E+00  0.00000000E+00
  0.00000000E+00  0.00000000E+00  0.00000000E+00
  0.00000000E+00  0.00000000E+00  0.00000000E+00
  0.00000000E+00  0.00000000E+00  0.00000000E+00
  0.00000000E+00  0.00000000E+00  0.00000000E+00
  0.00000000E+00  0.00000000E+00  0.00000000E+00
  0.00000000E+00  0.00000000E+00  0.00000000E+00
  0.00000000E+00  0.00000000E+00  0.00000000E+00
  0.00000000E+00  0.00000000E+00  0.00000000E+00
  0.00000000E+00  0.00000000E+00  0.00000000E+00
  0.00000000E+00  0.00000000E+00  0.00000000E+00
  0.00000000E+00  0.00000000E+00  0.00000000E+00
  0.00000000E+00  0.00000000E+00  0.00000000E+00
  0.00000000E+00  0.00000000E+00  0.00000000E+00
  0.00000000E+00  0.00000000E+00  0.00000000E+00
  0.00000000E+00  0.00000000E+00  0.00000000E+00
  0.00000000E+00  0.00000000E+00  0.00000000E+00
  0.00000000E+00  0.00000000E+00  0.00000000E+00
  0.00000000E+00  0.00000000E+00  0.00000000E+00
  0.00000000E+00  0.00000000E+00  0.00000000E+00
  0.00000000E+00  0.00000000E+00  0.00000000E+00
  0.00000000E+00  0.00000000E+00  0.00000000E+00
  0.00000000E+00  0.00000000E+00  0.00000000E+00
  0.00000000E+00  0.00000000E+00  0.00000000E+00
  0.00000000E+00  0.00000000E+00  0.00000000E+00
  0.00000000E+00  0.00000000E+00  0.00000000E+00
  0.00000000E+00  0.00000000E+00  0.00000000E+00
  0.00000000E+00  0.00000000E+00  0.00000000E+00
  0.00000000E+00  0.00000000E+00  0.00000000E+00
  0.00000000E+00  0.00000000E+00  0.00000000E+00
  0.00000000E+00  0.00000000E+00  0.00000000E+00
  0.00000000E+00  0.00000000E+00  0.00000000E+00
  0.00000000E+00  0.00000000E+00  0.00000000E+00
