 C Pt                                   
   1.0000000000000000     
    17.0979999999999990    0.0000000000000000    0.0000000000000000
     0.0000000000000000   19.7420000000000009    0.0000000000000000
     0.0000000000000000    0.0000000000000000   20.0000000000000000
   C    Pt
   128    13
Direct
  0.4169415842931086  0.9682434484687592  0.3801378669397686
  0.4169280046406242  0.0931544402300308  0.3778596391969922
  0.4168638711927251  0.2179498621758844  0.3755398842864227
  0.4166336808955398  0.3422136742990204  0.3766762331995502
  0.4175689147644129  0.4689923551495370  0.3755088298513817
  0.4179293272352093  0.5939811723517169  0.3691954229953223
  0.4171621366236290  0.7191136000810990  0.3668757378263623
  0.4169027345239791  0.8435589583869846  0.3772392908978839
  0.2918878617457597  0.9059153594663802  0.3795280532628709
  0.2918523408941588  0.0307495385070272  0.3789949340236768
  0.2919243614082709  0.1555364505037802  0.3773373528977053
  0.2917710998139408  0.2802908374929096  0.3774298422847497
  0.2915265002413329  0.4049563502141061  0.3807758185365414
  0.2905968590785599  0.5310282942907908  0.3765052853973071
  0.2911384369379961  0.6570685865007074  0.3724639915188943
  0.2917642614286987  0.7812744175302485  0.3744841765956190
  0.1667974366733314  0.9683469228768763  0.3797968952386591
  0.1668441722759103  0.0931666206469502  0.3784434590446947
  0.1667477811840048  0.2180672783512221  0.3784321968427600
  0.1668719707322968  0.3430028067670749  0.3797401085739912
  0.1668622651924455  0.4681557061421046  0.3782258045682982
  0.1667225013647294  0.5936699016196061  0.3756998864460127
  0.1666061052365556  0.7188305408165994  0.3761632706053017
  0.1667897957033888  0.8435023546598688  0.3790602244600147
  0.0418344347797853  0.9059328264641038  0.3795479950402950
  0.0418592807423272  0.0307846109846177  0.3795349621279246
  0.0419518110962879  0.1556955368793591  0.3791846019822146
  0.0420827250397408  0.2806087268725534  0.3799878910646323
  0.0420386875006464  0.4057714533676148  0.3802987592239843
  0.0421340870411344  0.5309602097185541  0.3784556719670901
  0.0420252188814566  0.6561421128551107  0.3781768435684490
  0.0418127322933195  0.7810317960109978  0.3789474888339374
  0.9169157977420783  0.9683481545818812  0.3793634280407726
  0.9169742191039665  0.0932496749300988  0.3797093387322099
  0.9170999934126091  0.2181776047310997  0.3800769240257636
  0.9173712687433270  0.3432707564603093  0.3802018618603720
  0.9172714981371064  0.4684708385662688  0.3788569317701634
  0.9173716181695301  0.5936474428324802  0.3777003000022010
  0.9170784202979981  0.7185654610487227  0.3784380856109260
  0.9169449149675014  0.8434456656027002  0.3793606361924141
  0.7919870160148244  0.9058733384431988  0.3796079369492859
  0.7919421434353546  0.0308115619170118  0.3796201081186276
  0.7921504214960312  0.1557243438369899  0.3791226232985581
  0.7924976114193679  0.2806452692883882  0.3785289926959930
  0.7927594361699151  0.4058259918852950  0.3771877390425505
  0.7930415781515161  0.5313990710196372  0.3722748042650817
  0.7923179008440241  0.6561920239799043  0.3731111426830649
  0.7920865183446247  0.7809895213436903  0.3771581738922297
  0.6670216769515190  0.9682705642200102  0.3799816421077603
  0.6670391425790575  0.0931903782131278  0.3784749804740431
  0.6672894940696131  0.2181623092615063  0.3768511159122833
  0.6678258745256963  0.3429907157786162  0.3760466210895975
  0.6688782135047086  0.4690383826641459  0.3745197795866907
  0.6675634465995135  0.5941013063559218  0.3630784189619389
  0.6673414257313346  0.7187759286239902  0.3696554930869915
  0.6670877284796204  0.8433898587200561  0.3780795893489618
  0.5420308049955626  0.9057544650453139  0.3798723985342375
  0.5419193912526845  0.0307160394132975  0.3792039868369501
  0.5420908799537998  0.1555630122532455  0.3764560617219905
  0.5425569388391865  0.2805084280736841  0.3747469985844017
  0.5427406915245664  0.4055205141601866  0.3815372295665100
  0.5422017534770173  0.5316376695853434  0.3625795293724594
  0.5425302177111258  0.6565438621712962  0.3601916578881701
  0.5423062921322027  0.7810002087039219  0.3725193425127833
  0.3334986386840335  0.9683206168625549  0.3799365851492869
  0.3335244758326821  0.0931079554505609  0.3779099018898394
  0.3335406950678534  0.2179950637980309  0.3766155537920512
  0.3333931442579123  0.3425996836250101  0.3776961614871464
  0.3334618803722479  0.4684454713365558  0.3823139083795470
  0.3331480970068914  0.5939455819484432  0.3758938008893191
  0.3331735150112946  0.7191718890480359  0.3700350562558836
  0.3335595804624346  0.8436036372199304  0.3772244095485624
  0.2084085243738683  0.9059195737003355  0.3797313791459384
  0.2085133563166314  0.0307837268019913  0.3790333527554869
  0.2084357590825529  0.1556341521188532  0.3778363196413334
  0.2083716181784954  0.2804748144965115  0.3788120132694114
  0.2085605287843115  0.4055706185333814  0.3798808390311517
  0.2082790687232390  0.5309369870868266  0.3760220984664513
  0.2081293647740207  0.6563653950303692  0.3746725559492656
  0.2083543202427321  0.7811223911502665  0.3767281366790998
  0.0834239833833857  0.9683237295295665  0.3796418515027363
  0.0835036375999638  0.0932226639110188  0.3790676218860439
  0.0836011238073315  0.2181792733863711  0.3790963792450355
  0.0836395479024307  0.3431491220993390  0.3801086580851621
  0.0838173816296154  0.4683074360393303  0.3789678401961013
  0.0837049903366245  0.5935755834013046  0.3773808459503827
  0.0834470754172597  0.7186473863030836  0.3778894894310854
  0.0834511350786397  0.8434884316699600  0.3794311676616276
  0.9584990751149706  0.9059197419460756  0.3793921227913744
  0.9585571673474442  0.0308166679217241  0.3795327460292069
  0.9586186968055720  0.1556879952339071  0.3797781026037417
  0.9588136973801739  0.2806556310628124  0.3803672053842852
  0.9589356358755707  0.4058695851046058  0.3802890242762249
  0.9590138314487345  0.5310444983182392  0.3786468577171722
  0.9588009762984107  0.6561599372928787  0.3785134661898051
  0.9585515659107708  0.7809846953188090  0.3791733237198153
  0.8335464321444679  0.9683144911961741  0.3796983582793784
  0.8336128830689739  0.0932221236521648  0.3795724747035145
  0.8339186205547968  0.2181630358588225  0.3793702556238644
  0.8341433397360828  0.3432085971250299  0.3789709948424528
  0.8342703800903993  0.4686109757762966  0.3763163173126575
  0.8343229827785551  0.5938666609326265  0.3742672411683033
  0.8338229524870301  0.7185910659231078  0.3765081549530601
  0.8336097505607236  0.8434829306313595  0.3789775230495445
  0.7086493792937765  0.9058567486494512  0.3797769674071195
  0.7086419685805854  0.0307918324292789  0.3794243662050782
  0.7087632682645661  0.1556533646506313  0.3782037478652893
  0.7091918881090139  0.2804961058135680  0.3768883864878280
  0.7099864015724048  0.4053402675329997  0.3763723827093173
  0.7102234439979237  0.5322510297932559  0.3681544480788505
  0.7090479715914255  0.6563504443621200  0.3678414312710883
  0.7087664258628131  0.7810073287676041  0.3754012125375855
  0.5835855633361160  0.9682219058268825  0.3801430741991157
  0.5836083558833626  0.0931735750401732  0.3779696672174265
  0.5839523200479194  0.2180757134478866  0.3755108923313164
  0.5846837010318169  0.3423756082436878  0.3763997708270785
  0.5846174753807459  0.4697929727512754  0.3752292113013674
  0.5841588458723417  0.5940305562607596  0.3591948640398456
  0.5840028142091093  0.7188854661981074  0.3666065490413687
  0.5837649065806815  0.8433762925493334  0.3775548160024812
  0.4585818988414703  0.9057958562183293  0.3798487104651420
  0.4586032053506320  0.0307463170363120  0.3791834711770962
  0.4585706135507623  0.1555318649989406  0.3764410397693112
  0.4584536144075549  0.2804036382631006  0.3748026892730325
  0.4587583878702663  0.4054069774423583  0.3807619067712739
  0.4594118574266824  0.5305184504091897  0.3647770695504083
  0.4593897694960704  0.6569753709670155  0.3620730272012256
  0.4586980928975372  0.7812682831509361  0.3723062165082983
  0.5146873664237287  0.3948155984026880  0.6162275125178995
  0.5070920638057554  0.5380066257914531  0.5275396898430875
  0.5624807460905531  0.6533052563006075  0.5496429878408142
  0.4232479415034330  0.6186637791169751  0.6038298633655924
  0.6128912193615853  0.4908477724734115  0.6059818660978064
  0.3624637876436230  0.4701040844913391  0.4958883472354083
  0.6876443300890676  0.5878080933224200  0.5493956217442015
  0.4377543556696826  0.7151469942417026  0.5176803956018464
  0.2915506197359454  0.5543738606956496  0.5821847376340979
  0.4068242430662089  0.4832934606073026  0.6204228063997407
  0.5024535405311417  0.4062020962212890  0.4890720437604663
  0.6331360657735857  0.4824794116247194  0.4799340616646959
  0.3801456692686803  0.6008494297438178  0.4786668213085777

  0.00000000E+00  0.00000000E+00  0.00000000E+00
  0.00000000E+00  0.00000000E+00  0.00000000E+00
  0.00000000E+00  0.00000000E+00  0.00000000E+00
  0.00000000E+00  0.00000000E+00  0.00000000E+00
  0.00000000E+00  0.00000000E+00  0.00000000E+00
  0.00000000E+00  0.00000000E+00  0.00000000E+00
  0.00000000E+00  0.00000000E+00  0.00000000E+00
  0.00000000E+00  0.00000000E+00  0.00000000E+00
  0.00000000E+00  0.00000000E+00  0.00000000E+00
  0.00000000E+00  0.00000000E+00  0.00000000E+00
  0.00000000E+00  0.00000000E+00  0.00000000E+00
  0.00000000E+00  0.00000000E+00  0.00000000E+00
  0.00000000E+00  0.00000000E+00  0.00000000E+00
  0.00000000E+00  0.00000000E+00  0.00000000E+00
  0.00000000E+00  0.00000000E+00  0.00000000E+00
  0.00000000E+00  0.00000000E+00  0.00000000E+00
  0.00000000E+00  0.00000000E+00  0.00000000E+00
  0.00000000E+00  0.00000000E+00  0.00000000E+00
  0.00000000E+00  0.00000000E+00  0.00000000E+00
  0.00000000E+00  0.00000000E+00  0.00000000E+00
  0.00000000E+00  0.00000000E+00  0.00000000E+00
  0.00000000E+00  0.00000000E+00  0.00000000E+00
  0.00000000E+00  0.00000000E+00  0.00000000E+00
  0.00000000E+00  0.00000000E+00  0.00000000E+00
  0.00000000E+00  0.00000000E+00  0.00000000E+00
  0.00000000E+00  0.00000000E+00  0.00000000E+00
  0.00000000E+00  0.00000000E+00  0.00000000E+00
  0.00000000E+00  0.00000000E+00  0.00000000E+00
  0.00000000E+00  0.00000000E+00  0.00000000E+00
  0.00000000E+00  0.00000000E+00  0.00000000E+00
  0.00000000E+00  0.00000000E+00  0.00000000E+00
  0.00000000E+00  0.00000000E+00  0.00000000E+00
  0.00000000E+00  0.00000000E+00  0.00000000E+00
  0.00000000E+00  0.00000000E+00  0.00000000E+00
  0.00000000E+00  0.00000000E+00  0.00000000E+00
  0.00000000E+00  0.00000000E+00  0.00000000E+00
  0.00000000E+00  0.00000000E+00  0.00000000E+00
  0.00000000E+00  0.00000000E+00  0.00000000E+00
  0.00000000E+00  0.00000000E+00  0.00000000E+00
  0.00000000E+00  0.00000000E+00  0.00000000E+00
  0.00000000E+00  0.00000000E+00  0.00000000E+00
  0.00000000E+00  0.00000000E+00  0.00000000E+00
  0.00000000E+00  0.00000000E+00  0.00000000E+00
  0.00000000E+00  0.00000000E+00  0.00000000E+00
  0.00000000E+00  0.00000000E+00  0.00000000E+00
  0.00000000E+00  0.00000000E+00  0.00000000E+00
  0.00000000E+00  0.00000000E+00  0.00000000E+00
  0.00000000E+00  0.00000000E+00  0.00000000E+00
  0.00000000E+00  0.00000000E+00  0.00000000E+00
  0.00000000E+00  0.00000000E+00  0.00000000E+00
  0.00000000E+00  0.00000000E+00  0.00000000E+00
  0.00000000E+00  0.00000000E+00  0.00000000E+00
  0.00000000E+00  0.00000000E+00  0.00000000E+00
  0.00000000E+00  0.00000000E+00  0.00000000E+00
  0.00000000E+00  0.00000000E+00  0.00000000E+00
  0.00000000E+00  0.00000000E+00  0.00000000E+00
  0.00000000E+00  0.00000000E+00  0.00000000E+00
  0.00000000E+00  0.00000000E+00  0.00000000E+00
  0.00000000E+00  0.00000000E+00  0.00000000E+00
  0.00000000E+00  0.00000000E+00  0.00000000E+00
  0.00000000E+00  0.00000000E+00  0.00000000E+00
  0.00000000E+00  0.00000000E+00  0.00000000E+00
  0.00000000E+00  0.00000000E+00  0.00000000E+00
  0.00000000E+00  0.00000000E+00  0.00000000E+00
  0.00000000E+00  0.00000000E+00  0.00000000E+00
  0.00000000E+00  0.00000000E+00  0.00000000E+00
  0.00000000E+00  0.00000000E+00  0.00000000E+00
  0.00000000E+00  0.00000000E+00  0.00000000E+00
  0.00000000E+00  0.00000000E+00  0.00000000E+00
  0.00000000E+00  0.00000000E+00  0.00000000E+00
  0.00000000E+00  0.00000000E+00  0.00000000E+00
  0.00000000E+00  0.00000000E+00  0.00000000E+00
  0.00000000E+00  0.00000000E+00  0.00000000E+00
  0.00000000E+00  0.00000000E+00  0.00000000E+00
  0.00000000E+00  0.00000000E+00  0.00000000E+00
  0.00000000E+00  0.00000000E+00  0.00000000E+00
  0.00000000E+00  0.00000000E+00  0.00000000E+00
  0.00000000E+00  0.00000000E+00  0.00000000E+00
  0.00000000E+00  0.00000000E+00  0.00000000E+00
  0.00000000E+00  0.00000000E+00  0.00000000E+00
  0.00000000E+00  0.00000000E+00  0.00000000E+00
  0.00000000E+00  0.00000000E+00  0.00000000E+00
  0.00000000E+00  0.00000000E+00  0.00000000E+00
  0.00000000E+00  0.00000000E+00  0.00000000E+00
  0.00000000E+00  0.00000000E+00  0.00000000E+00
  0.00000000E+00  0.00000000E+00  0.00000000E+00
  0.00000000E+00  0.00000000E+00  0.00000000E+00
  0.00000000E+00  0.00000000E+00  0.00000000E+00
  0.00000000E+00  0.00000000E+00  0.00000000E+00
  0.00000000E+00  0.00000000E+00  0.00000000E+00
  0.00000000E+00  0.00000000E+00  0.00000000E+00
  0.00000000E+00  0.00000000E+00  0.00000000E+00
  0.00000000E+00  0.00000000E+00  0.00000000E+00
  0.00000000E+00  0.00000000E+00  0.00000000E+00
  0.00000000E+00  0.00000000E+00  0.00000000E+00
  0.00000000E+00  0.00000000E+00  0.00000000E+00
  0.00000000E+00  0.00000000E+00  0.00000000E+00
  0.00000000E+00  0.00000000E+00  0.00000000E+00
  0.00000000E+00  0.00000000E+00  0.00000000E+00
  0.00000000E+00  0.00000000E+00  0.00000000E+00
  0.00000000E+00  0.00000000E+00  0.00000000E+00
  0.00000000E+00  0.00000000E+00  0.00000000E+00
  0.00000000E+00  0.00000000E+00  0.00000000E+00
  0.00000000E+00  0.00000000E+00  0.00000000E+00
  0.00000000E+00  0.00000000E+00  0.00000000E+00
  0.00000000E+00  0.00000000E+00  0.00000000E+00
  0.00000000E+00  0.00000000E+00  0.00000000E+00
  0.00000000E+00  0.00000000E+00  0.00000000E+00
  0.00000000E+00  0.00000000E+00  0.00000000E+00
  0.00000000E+00  0.00000000E+00  0.00000000E+00
  0.00000000E+00  0.00000000E+00  0.00000000E+00
  0.00000000E+00  0.00000000E+00  0.00000000E+00
  0.00000000E+00  0.00000000E+00  0.00000000E+00
  0.00000000E+00  0.00000000E+00  0.00000000E+00
  0.00000000E+00  0.00000000E+00  0.00000000E+00
  0.00000000E+00  0.00000000E+00  0.00000000E+00
  0.00000000E+00  0.00000000E+00  0.00000000E+00
  0.00000000E+00  0.00000000E+00  0.00000000E+00
  0.00000000E+00  0.00000000E+00  0.00000000E+00
  0.00000000E+00  0.00000000E+00  0.00000000E+00
  0.00000000E+00  0.00000000E+00  0.00000000E+00
  0.00000000E+00  0.00000000E+00  0.00000000E+00
  0.00000000E+00  0.00000000E+00  0.00000000E+00
  0.00000000E+00  0.00000000E+00  0.00000000E+00
  0.00000000E+00  0.00000000E+00  0.00000000E+00
  0.00000000E+00  0.00000000E+00  0.00000000E+00
  0.00000000E+00  0.00000000E+00  0.00000000E+00
  0.00000000E+00  0.00000000E+00  0.00000000E+00
  0.00000000E+00  0.00000000E+00  0.00000000E+00
  0.00000000E+00  0.00000000E+00  0.00000000E+00
  0.00000000E+00  0.00000000E+00  0.00000000E+00
  0.00000000E+00  0.00000000E+00  0.00000000E+00
  0.00000000E+00  0.00000000E+00  0.00000000E+00
  0.00000000E+00  0.00000000E+00  0.00000000E+00
  0.00000000E+00  0.00000000E+00  0.00000000E+00
  0.00000000E+00  0.00000000E+00  0.00000000E+00
  0.00000000E+00  0.00000000E+00  0.00000000E+00
  0.00000000E+00  0.00000000E+00  0.00000000E+00
  0.00000000E+00  0.00000000E+00  0.00000000E+00
  0.00000000E+00  0.00000000E+00  0.00000000E+00
  0.00000000E+00  0.00000000E+00  0.00000000E+00
