 C Pt                                   
   1.0000000000000000     
    17.0979999999999990    0.0000000000000000    0.0000000000000000
     0.0000000000000000   19.7420000000000009    0.0000000000000000
     0.0000000000000000    0.0000000000000000   20.0000000000000000
   C    Pt
   128    13
Direct
  0.4167641211150319  0.9691949152871184  0.3805492843644322
  0.4168639418093520  0.0939819986464903  0.3793452620358556
  0.4169757843225749  0.2187852548769583  0.3784491521199537
  0.4169301427267186  0.3434345983806338  0.3778236927834669
  0.4160732869326629  0.4700876607270545  0.3658723290359836
  0.4173667370135017  0.5946112976501076  0.3647722666319836
  0.4163773094926872  0.7196994999035456  0.3733694810718999
  0.4166086265042014  0.8444428340381582  0.3791747867249596
  0.2916860383226173  0.9065684236567304  0.3806024263543024
  0.2917945298684084  0.0313925917390064  0.3803839601336502
  0.2917943324663100  0.1560735919908720  0.3790747694921289
  0.2918550954654463  0.2805908272330160  0.3783089698531534
  0.2926153496710243  0.4068199389961054  0.3807766995511452
  0.2908867518777169  0.5310046459601490  0.3702269525495270
  0.2912250647558059  0.6568278506186978  0.3801469411006371
  0.2915982838932083  0.7818427146632480  0.3795899733374962
  0.1667481304776393  0.9688222601368324  0.3812670700146117
  0.1667908762159632  0.0936573796994497  0.3805218162213418
  0.1667821014236797  0.2185422154088139  0.3804256188790681
  0.1664684532473527  0.3431641557100721  0.3830079836201868
  0.1664078192325088  0.4693212063680152  0.3807273580360494
  0.1661922994262879  0.5939043456854927  0.3776798095516299
  0.1664210569799803  0.7189726877943492  0.3805738642860480
  0.1667877559251959  0.8439050729528658  0.3815272946884560
  0.0417931170083556  0.9062911071323351  0.3815468481897189
  0.0418060320692486  0.0312102955520852  0.3811733073334821
  0.0417872406279270  0.1560998897616379  0.3813293820524306
  0.0418385981422777  0.2810298712467608  0.3820782568022808
  0.0418202704823556  0.4063108736246926  0.3823117244328703
  0.0417000299506240  0.5313912224147951  0.3794461655921285
  0.0416814038815708  0.6565037894020788  0.3799223110146494
  0.0417301716964021  0.7814603603623775  0.3811783772944646
  0.9168112924159804  0.9687796019907731  0.3813692301140852
  0.9168222973969601  0.0936819504631383  0.3812919052298486
  0.9169467201625762  0.2186372496724411  0.3817309757407319
  0.9169022182501244  0.3437115594794022  0.3818359491867601
  0.9171538219554045  0.4688773763937811  0.3792004402527710
  0.9170680331435199  0.5939878661038439  0.3789134491482647
  0.9169715889892663  0.7189972095710018  0.3808453110286692
  0.9168667375854873  0.8439425915472435  0.3815384307056408
  0.7918319075204321  0.9064137183971078  0.3820604176763875
  0.7918872605890629  0.0313528673191864  0.3813374271898882
  0.7919010099572577  0.1562949848083269  0.3817281415922176
  0.7921437527893102  0.2811420363640930  0.3838049186384140
  0.7924205960976519  0.4065168834829335  0.3803471354479340
  0.7926139752441614  0.5315298918853413  0.3759239685947873
  0.7923729604001736  0.6565927387469681  0.3798774991055847
  0.7921463316313442  0.7815728439895361  0.3827031625801939
  0.6668260321186933  0.9690376712082669  0.3814861864661952
  0.6668996301594281  0.0939359734738964  0.3805855331158376
  0.6671665521040486  0.2188966485580937  0.3841282467614396
  0.6677070192245809  0.3444992998268140  0.3917355548888444
  0.6680054696836080  0.4690292096278866  0.3736786211631351
  0.6684662985604016  0.5940453630067802  0.3774065194235413
  0.6678721873161744  0.7192151055417209  0.3849645747293232
  0.6669086186592915  0.8441660128689166  0.3836346273163727
  0.5417388108724703  0.9069313580259696  0.3812771611834832
  0.5419056350789255  0.0316603391586179  0.3802701776354942
  0.5418989338179381  0.1564734312192822  0.3800102773381330
  0.5416914248425351  0.2809678721444415  0.3843313762034606
  0.5418641803048800  0.4077170460550092  0.3824082488636418
  0.5416732621071672  0.5314843908112382  0.3736322031100414
  0.5408201562700061  0.6573737157894849  0.3814230062563360
  0.5413737059731678  0.7828206415090938  0.3819456490037524
  0.3333946156519084  0.9690292296692729  0.3805659864696292
  0.3334263414724314  0.0937574277376210  0.3795482233942452
  0.3334706421548851  0.2185374478801173  0.3781514777742313
  0.3342344699159898  0.3428791798692480  0.3785193385057001
  0.3333452976528381  0.4698083854062863  0.3683903815855406
  0.3337255601071240  0.5937500290886797  0.3742715461234947
  0.3334320648265650  0.7197704080558777  0.3773873031144699
  0.3332202735767256  0.8443072615724516  0.3794410037256555
  0.2083022503062033  0.9064334599828873  0.3813638074418969
  0.2083300293888837  0.0312798770013548  0.3806818852240740
  0.2084144443279179  0.1560688374946697  0.3798563999523306
  0.2082214347366011  0.2808423665876708  0.3802803350254864
  0.2082811123102291  0.4063454501336319  0.3855099410813809
  0.2077617171569155  0.5313000571243397  0.3755779751599639
  0.2073810515767989  0.6565326491736012  0.3795517542429448
  0.2082941527779082  0.7815380753109333  0.3809367662393305
  0.0834284135742524  0.9688019047730294  0.3813355886170738
  0.0834040116772218  0.0936303332652026  0.3810188172646896
  0.0833669319065932  0.2185338759623718  0.3814321484386277
  0.0835361688219085  0.3435503605470057  0.3828260858165075
  0.0833602133511858  0.4689153843658650  0.3811505060650314
  0.0832468032423142  0.5939206034556724  0.3790724643202529
  0.0831567280957016  0.7190116205686549  0.3805955725139387
  0.0833631550735568  0.8439325377963988  0.3816020080072610
  0.9584904201900551  0.9063390073713262  0.3814538870473919
  0.9584750523925600  0.0312316690813220  0.3812599630298596
  0.9585670708521973  0.1561601862673933  0.3814299015037368
  0.9585726366721854  0.2811053378413024  0.3820153039917410
  0.9587536295430885  0.4062562229083143  0.3812429854154705
  0.9585813001232045  0.5314136411781133  0.3789585441577415
  0.9585462524628440  0.6565360474556294  0.3799179200889746
  0.9585028247712070  0.7815108871404364  0.3812586690857360
  0.8335281488319596  0.9688110530825502  0.3815393492309301
  0.8335773825873982  0.0937686038513781  0.3812982626707137
  0.8336838392277954  0.2186421690396180  0.3821981179809620
  0.8338570158313976  0.3438122667019635  0.3823963372889732
  0.8341056330703690  0.4689701813117195  0.3776575060427700
  0.8339767032645033  0.5940895749590558  0.3781211776576599
  0.8337523314173108  0.7190851492422099  0.3814132123985167
  0.8335474641639377  0.8440068482701857  0.3820886008132867
  0.7084366255673169  0.9064259046890678  0.3824850954918781
  0.7084444230483655  0.0314509332264142  0.3810283595217574
  0.7086328393563038  0.1564485228732855  0.3817147299905596
  0.7091776559387483  0.2809931334457313  0.3871281882544633
  0.7095076266642083  0.4071595131655626  0.3815925952735568
  0.7096414545889157  0.5317095140054006  0.3736058784660769
  0.7092000602474973  0.6566901059534214  0.3806568144432694
  0.7088076673352487  0.7815838291437690  0.3842435429444671
  0.5834975576015577  0.9692291672370050  0.3810713986080005
  0.5835548196528999  0.0939918893446936  0.3800605870783693
  0.5834058658634368  0.2189197521030324  0.3827326017753029
  0.5832464035787029  0.3439823735182837  0.3909864852271357
  0.5851067452442754  0.4689367945558007  0.3729995680671697
  0.5845585400215482  0.5936828453742224  0.3805385198421690
  0.5836221957885704  0.7200123775044053  0.3871595444895894
  0.5833930666059834  0.8446247044007037  0.3824883933764621
  0.4584110979565461  0.9068005182514323  0.3806484163912583
  0.4584403039582605  0.0316135754609170  0.3801096585037810
  0.4585503689171461  0.1564333905151754  0.3790336490667675
  0.4586075602300363  0.2812920832970941  0.3796361781580863
  0.4576855092933680  0.4075321093832674  0.3794604822727729
  0.4577097674497911  0.5321134075697107  0.3637668617240110
  0.4578959546495880  0.6572533169441884  0.3697042152558329
  0.4582436243047031  0.7822050540854630  0.3776044317612675
  0.6173414592025068  0.3682200534668923  0.4983063478445598
  0.4884489977992585  0.4343305200918931  0.4912267082752865
  0.4801894638894286  0.4752152580959259  0.6120661275564208
  0.5502074114642220  0.6813067041882322  0.6159195866805904
  0.5565127591667293  0.5529261275535760  0.4822303447060938
  0.4447617611586470  0.6027069516575206  0.5663497361883381
  0.3923758317153296  0.3760631608129698  0.5753102776254572
  0.5942326607871635  0.5568523515743667  0.6089123638143648
  0.3349229421052860  0.6148445685329743  0.4836220720226118
  0.2861616516744305  0.3958240516005880  0.4865971195641525
  0.5463661979477528  0.6839347973260490  0.4891497796048629
  0.3590965582709343  0.4987563280966441  0.5315341073121534
  0.6177907931193741  0.4271917834265979  0.6118545717216910

  0.00000000E+00  0.00000000E+00  0.00000000E+00
  0.00000000E+00  0.00000000E+00  0.00000000E+00
  0.00000000E+00  0.00000000E+00  0.00000000E+00
  0.00000000E+00  0.00000000E+00  0.00000000E+00
  0.00000000E+00  0.00000000E+00  0.00000000E+00
  0.00000000E+00  0.00000000E+00  0.00000000E+00
  0.00000000E+00  0.00000000E+00  0.00000000E+00
  0.00000000E+00  0.00000000E+00  0.00000000E+00
  0.00000000E+00  0.00000000E+00  0.00000000E+00
  0.00000000E+00  0.00000000E+00  0.00000000E+00
  0.00000000E+00  0.00000000E+00  0.00000000E+00
  0.00000000E+00  0.00000000E+00  0.00000000E+00
  0.00000000E+00  0.00000000E+00  0.00000000E+00
  0.00000000E+00  0.00000000E+00  0.00000000E+00
  0.00000000E+00  0.00000000E+00  0.00000000E+00
  0.00000000E+00  0.00000000E+00  0.00000000E+00
  0.00000000E+00  0.00000000E+00  0.00000000E+00
  0.00000000E+00  0.00000000E+00  0.00000000E+00
  0.00000000E+00  0.00000000E+00  0.00000000E+00
  0.00000000E+00  0.00000000E+00  0.00000000E+00
  0.00000000E+00  0.00000000E+00  0.00000000E+00
  0.00000000E+00  0.00000000E+00  0.00000000E+00
  0.00000000E+00  0.00000000E+00  0.00000000E+00
  0.00000000E+00  0.00000000E+00  0.00000000E+00
  0.00000000E+00  0.00000000E+00  0.00000000E+00
  0.00000000E+00  0.00000000E+00  0.00000000E+00
  0.00000000E+00  0.00000000E+00  0.00000000E+00
  0.00000000E+00  0.00000000E+00  0.00000000E+00
  0.00000000E+00  0.00000000E+00  0.00000000E+00
  0.00000000E+00  0.00000000E+00  0.00000000E+00
  0.00000000E+00  0.00000000E+00  0.00000000E+00
  0.00000000E+00  0.00000000E+00  0.00000000E+00
  0.00000000E+00  0.00000000E+00  0.00000000E+00
  0.00000000E+00  0.00000000E+00  0.00000000E+00
  0.00000000E+00  0.00000000E+00  0.00000000E+00
  0.00000000E+00  0.00000000E+00  0.00000000E+00
  0.00000000E+00  0.00000000E+00  0.00000000E+00
  0.00000000E+00  0.00000000E+00  0.00000000E+00
  0.00000000E+00  0.00000000E+00  0.00000000E+00
  0.00000000E+00  0.00000000E+00  0.00000000E+00
  0.00000000E+00  0.00000000E+00  0.00000000E+00
  0.00000000E+00  0.00000000E+00  0.00000000E+00
  0.00000000E+00  0.00000000E+00  0.00000000E+00
  0.00000000E+00  0.00000000E+00  0.00000000E+00
  0.00000000E+00  0.00000000E+00  0.00000000E+00
  0.00000000E+00  0.00000000E+00  0.00000000E+00
  0.00000000E+00  0.00000000E+00  0.00000000E+00
  0.00000000E+00  0.00000000E+00  0.00000000E+00
  0.00000000E+00  0.00000000E+00  0.00000000E+00
  0.00000000E+00  0.00000000E+00  0.00000000E+00
  0.00000000E+00  0.00000000E+00  0.00000000E+00
  0.00000000E+00  0.00000000E+00  0.00000000E+00
  0.00000000E+00  0.00000000E+00  0.00000000E+00
  0.00000000E+00  0.00000000E+00  0.00000000E+00
  0.00000000E+00  0.00000000E+00  0.00000000E+00
  0.00000000E+00  0.00000000E+00  0.00000000E+00
  0.00000000E+00  0.00000000E+00  0.00000000E+00
  0.00000000E+00  0.00000000E+00  0.00000000E+00
  0.00000000E+00  0.00000000E+00  0.00000000E+00
  0.00000000E+00  0.00000000E+00  0.00000000E+00
  0.00000000E+00  0.00000000E+00  0.00000000E+00
  0.00000000E+00  0.00000000E+00  0.00000000E+00
  0.00000000E+00  0.00000000E+00  0.00000000E+00
  0.00000000E+00  0.00000000E+00  0.00000000E+00
  0.00000000E+00  0.00000000E+00  0.00000000E+00
  0.00000000E+00  0.00000000E+00  0.00000000E+00
  0.00000000E+00  0.00000000E+00  0.00000000E+00
  0.00000000E+00  0.00000000E+00  0.00000000E+00
  0.00000000E+00  0.00000000E+00  0.00000000E+00
  0.00000000E+00  0.00000000E+00  0.00000000E+00
  0.00000000E+00  0.00000000E+00  0.00000000E+00
  0.00000000E+00  0.00000000E+00  0.00000000E+00
  0.00000000E+00  0.00000000E+00  0.00000000E+00
  0.00000000E+00  0.00000000E+00  0.00000000E+00
  0.00000000E+00  0.00000000E+00  0.00000000E+00
  0.00000000E+00  0.00000000E+00  0.00000000E+00
  0.00000000E+00  0.00000000E+00  0.00000000E+00
  0.00000000E+00  0.00000000E+00  0.00000000E+00
  0.00000000E+00  0.00000000E+00  0.00000000E+00
  0.00000000E+00  0.00000000E+00  0.00000000E+00
  0.00000000E+00  0.00000000E+00  0.00000000E+00
  0.00000000E+00  0.00000000E+00  0.00000000E+00
  0.00000000E+00  0.00000000E+00  0.00000000E+00
  0.00000000E+00  0.00000000E+00  0.00000000E+00
  0.00000000E+00  0.00000000E+00  0.00000000E+00
  0.00000000E+00  0.00000000E+00  0.00000000E+00
  0.00000000E+00  0.00000000E+00  0.00000000E+00
  0.00000000E+00  0.00000000E+00  0.00000000E+00
  0.00000000E+00  0.00000000E+00  0.00000000E+00
  0.00000000E+00  0.00000000E+00  0.00000000E+00
  0.00000000E+00  0.00000000E+00  0.00000000E+00
  0.00000000E+00  0.00000000E+00  0.00000000E+00
  0.00000000E+00  0.00000000E+00  0.00000000E+00
  0.00000000E+00  0.00000000E+00  0.00000000E+00
  0.00000000E+00  0.00000000E+00  0.00000000E+00
  0.00000000E+00  0.00000000E+00  0.00000000E+00
  0.00000000E+00  0.00000000E+00  0.00000000E+00
  0.00000000E+00  0.00000000E+00  0.00000000E+00
  0.00000000E+00  0.00000000E+00  0.00000000E+00
  0.00000000E+00  0.00000000E+00  0.00000000E+00
  0.00000000E+00  0.00000000E+00  0.00000000E+00
  0.00000000E+00  0.00000000E+00  0.00000000E+00
  0.00000000E+00  0.00000000E+00  0.00000000E+00
  0.00000000E+00  0.00000000E+00  0.00000000E+00
  0.00000000E+00  0.00000000E+00  0.00000000E+00
  0.00000000E+00  0.00000000E+00  0.00000000E+00
  0.00000000E+00  0.00000000E+00  0.00000000E+00
  0.00000000E+00  0.00000000E+00  0.00000000E+00
  0.00000000E+00  0.00000000E+00  0.00000000E+00
  0.00000000E+00  0.00000000E+00  0.00000000E+00
  0.00000000E+00  0.00000000E+00  0.00000000E+00
  0.00000000E+00  0.00000000E+00  0.00000000E+00
  0.00000000E+00  0.00000000E+00  0.00000000E+00
  0.00000000E+00  0.00000000E+00  0.00000000E+00
  0.00000000E+00  0.00000000E+00  0.00000000E+00
  0.00000000E+00  0.00000000E+00  0.00000000E+00
  0.00000000E+00  0.00000000E+00  0.00000000E+00
  0.00000000E+00  0.00000000E+00  0.00000000E+00
  0.00000000E+00  0.00000000E+00  0.00000000E+00
  0.00000000E+00  0.00000000E+00  0.00000000E+00
  0.00000000E+00  0.00000000E+00  0.00000000E+00
  0.00000000E+00  0.00000000E+00  0.00000000E+00
  0.00000000E+00  0.00000000E+00  0.00000000E+00
  0.00000000E+00  0.00000000E+00  0.00000000E+00
  0.00000000E+00  0.00000000E+00  0.00000000E+00
  0.00000000E+00  0.00000000E+00  0.00000000E+00
  0.00000000E+00  0.00000000E+00  0.00000000E+00
  0.00000000E+00  0.00000000E+00  0.00000000E+00
  0.00000000E+00  0.00000000E+00  0.00000000E+00
  0.00000000E+00  0.00000000E+00  0.00000000E+00
  0.00000000E+00  0.00000000E+00  0.00000000E+00
  0.00000000E+00  0.00000000E+00  0.00000000E+00
  0.00000000E+00  0.00000000E+00  0.00000000E+00
  0.00000000E+00  0.00000000E+00  0.00000000E+00
  0.00000000E+00  0.00000000E+00  0.00000000E+00
  0.00000000E+00  0.00000000E+00  0.00000000E+00
  0.00000000E+00  0.00000000E+00  0.00000000E+00
  0.00000000E+00  0.00000000E+00  0.00000000E+00
  0.00000000E+00  0.00000000E+00  0.00000000E+00
  0.00000000E+00  0.00000000E+00  0.00000000E+00
  0.00000000E+00  0.00000000E+00  0.00000000E+00
