 C Pt                                   
   1.0000000000000000     
    17.0979999999999990    0.0000000000000000    0.0000000000000000
     0.0000000000000000   19.7420000000000009    0.0000000000000000
     0.0000000000000000    0.0000000000000000   20.0000000000000000
   C    Pt
   128    13
Direct
  0.4176259668993519  0.9691542253918438  0.3843386436438053
  0.4175644563345707  0.0940072828849043  0.3849227097496345
  0.4172984687162964  0.2188513582489404  0.3851757342063438
  0.4170259880196142  0.3439354591990340  0.3852683463356000
  0.4161603045646809  0.4698541716038709  0.3743999813119080
  0.4164663337975987  0.5936030786206212  0.3761739844766804
  0.4176746293231947  0.7191713975331290  0.3899422000563397
  0.4177358495994026  0.8442415075488274  0.3853702278741082
  0.2927538479228133  0.9065803365219033  0.3856060559454408
  0.2927380694179338  0.0315917328612711  0.3848720248482678
  0.2924513454233391  0.1565845860551549  0.3851698600652045
  0.2922581529034260  0.2815361350058351  0.3848426199163013
  0.2919984388559209  0.4067529789536763  0.3807064214302535
  0.2918263112587937  0.5317779101390238  0.3777471944876312
  0.2920436103494040  0.6568124704744424  0.3825470690059585
  0.2923451070356808  0.7817348242903314  0.3864800069022146
  0.1675832030128898  0.9690674901192090  0.3850830120503067
  0.1675795294223290  0.0942761074048863  0.3846811398158263
  0.1675343300618329  0.2191011785675960  0.3848474286084764
  0.1673912660702393  0.3439995536116693  0.3844315311004036
  0.1671691383015311  0.4693069488992606  0.3825475399147000
  0.1671644820426918  0.5943911079657896  0.3829626068132087
  0.1674252902640663  0.7194094319536113  0.3855685104143220
  0.1675634263867356  0.8440735527004052  0.3859376546858184
  0.0425984962775028  0.9066574967199392  0.3854379385886852
  0.0425315014325848  0.0316482135074224  0.3846129182385896
  0.0427253924296120  0.1566029310141425  0.3845058319572533
  0.0426636934243193  0.2815995773466510  0.3845971721993510
  0.0423510513737865  0.4067710813872989  0.3836625773997782
  0.0423271895897755  0.5317629826259657  0.3829380213652659
  0.0423459952598592  0.6568151982792914  0.3843815232309072
  0.0425784286801164  0.7818065737914945  0.3858066666569331
  0.9176479500022211  0.9692399399548762  0.3845699546601255
  0.9176744308163451  0.0939819248606660  0.3846198628205875
  0.9178437794115766  0.2190384551045634  0.3843010090598786
  0.9177508428967670  0.3442531652308932  0.3826496630971317
  0.9179533774346532  0.4693169096500253  0.3790962979079095
  0.9177507597967910  0.5942881462646119  0.3787931741797990
  0.9175180266714534  0.7192176738775244  0.3815218037569255
  0.9176803958481451  0.8443232360858918  0.3838950876967019
  0.7926856530428813  0.9067684603101389  0.3824949989911183
  0.7928035460654819  0.0316193090986930  0.3844006358306064
  0.7928229380484759  0.1565084630249238  0.3848246405060495
  0.7928020256832079  0.2815251907719636  0.3843658877374444
  0.7934700331402454  0.4066567228425549  0.3784200006333943
  0.7931780911735008  0.5317959397335824  0.3708395901986964
  0.7929666388879254  0.6569760394819899  0.3723937397684667
  0.7927040518883089  0.7817746395656964  0.3782250112709247
  0.6675834655212762  0.9691925882046658  0.3830919076304690
  0.6676537273438450  0.0940387701280016  0.3845510330988527
  0.6680256890968850  0.2190383552077863  0.3852057786224034
  0.6682447458343423  0.3440160173742353  0.3893995394288672
  0.6683803443085566  0.4691112428717350  0.3729693591690702
  0.6684434997520653  0.5946467333860020  0.3654153432259414
  0.6681000124350670  0.7194478766609489  0.3724643110053464
  0.6677762083417832  0.8441886834516878  0.3790349875987116
  0.5426138358236327  0.9067669181127023  0.3825195400492684
  0.5426512032411319  0.0315687500868926  0.3841601695957766
  0.5425767170738629  0.1563911678119187  0.3850386288772411
  0.5422684544192672  0.2807804707172360  0.3855603174804455
  0.5427898090875724  0.4068992669613414  0.3763921086674704
  0.5423547366912809  0.5317182044090195  0.3787591944440594
  0.5438706986281369  0.6569967543028690  0.3754665177543963
  0.5427249042955258  0.7818967306085350  0.3800316924844810
  0.3344173927713617  0.9691494004403123  0.3849463459596736
  0.3342351143849647  0.0940370868912925  0.3849784161389099
  0.3338871389083209  0.2189924680865667  0.3852878645028779
  0.3337542818424681  0.3441694299497171  0.3837245327692027
  0.3332219617522434  0.4693597095162712  0.3765553836487855
  0.3335398680007940  0.5941500137116003  0.3778123131219819
  0.3337028970733224  0.7192083859715334  0.3866479206577940
  0.3341757587733312  0.8442529093993442  0.3863197038291455
  0.2092424894963501  0.9064509076165077  0.3855645091207674
  0.2092334999124539  0.0317277363412016  0.3848444999161345
  0.2091421936474941  0.1567445226361179  0.3849155154364891
  0.2089764423922381  0.2814410307832143  0.3847643835941265
  0.2090257210309271  0.4066271701266033  0.3826512718589803
  0.2086558163854710  0.5318403729420789  0.3811759856704195
  0.2089211984208215  0.6569858114043230  0.3835992201414847
  0.2090484143241118  0.7817762407028545  0.3859517664305902
  0.0841999229234152  0.9691920881090560  0.3850133961457974
  0.0842448073808395  0.0940693640586459  0.3845390904331454
  0.0843516491307850  0.2190702430370518  0.3846638231463964
  0.0841405682778668  0.3442229192617546  0.3845520360675759
  0.0839501529760849  0.4692525036892569  0.3834049432103079
  0.0840239124883128  0.5943085373579083  0.3838065322307507
  0.0841489658353886  0.7193106861053437  0.3856993361318509
  0.0842846233595101  0.8442714731322370  0.3859590375648798
  0.9593102493410074  0.9067898516285019  0.3849251256920237
  0.9592878607674814  0.0316245237362343  0.3845957866019504
  0.9594253651510553  0.1564908522460199  0.3845030678205245
  0.9593658106635872  0.2815865664568260  0.3841233190012652
  0.9593242326049506  0.4068027976463160  0.3820595408007849
  0.9593109143766185  0.5318190089282256  0.3804672062338794
  0.9591818635411136  0.6568084933905475  0.3819532032467124
  0.9593019497855907  0.7818082826898938  0.3842312606894179
  0.8344678986911411  0.9692612999955098  0.3840484643855440
  0.8344777479498390  0.0939500790262485  0.3847511606900859
  0.8344297898677948  0.2189923514948851  0.3844623674308442
  0.8346500033367410  0.3441311221065242  0.3820764791615844
  0.8349725102788274  0.4692648505139970  0.3751161858695388
  0.8347416177702408  0.5944695801304229  0.3734631529528670
  0.8343629120516006  0.7192796879429397  0.3773870370149962
  0.8342841624242443  0.8443022681368266  0.3817593705911387
  0.7093664046636268  0.9066602751437222  0.3815671932587602
  0.7093447420831992  0.0316427308361848  0.3841697617248881
  0.7094794116381314  0.1566189342804945  0.3847248639472865
  0.7099439478063886  0.2809933385185019  0.3864548662890233
  0.7103889828466257  0.4069028015016294  0.3806245261729078
  0.7101272628738894  0.5320775221476994  0.3672769940644234
  0.7098544855082006  0.6571662307134841  0.3683333427235524
  0.7095858300241424  0.7818135200699174  0.3762993145050469
  0.5843411773843532  0.9691738883551549  0.3832150921504376
  0.5843260641464662  0.0939313265360979  0.3846436883821818
  0.5842013302020331  0.2188760551518542  0.3852821046398444
  0.5841811020293480  0.3440540504903020  0.3868147773870388
  0.5843770926610433  0.4684320981924299  0.3716340596273546
  0.5852673556395918  0.5949789008968234  0.3707743703209910
  0.5847952414969693  0.7195818941124276  0.3748843791408539
  0.5841846003959089  0.8442858152029209  0.3801034950918358
  0.4593420534248576  0.9067316096826898  0.3838306996949621
  0.4592058374723865  0.0315775513149567  0.3843715479235172
  0.4592411929568802  0.1564614983783870  0.3851674511167563
  0.4589451419019149  0.2811639539328311  0.3850775759147316
  0.4587713385529741  0.4072259338104028  0.3823484596663814
  0.4574999737654433  0.5317791623015278  0.3723339098011822
  0.4598109781306787  0.6557990927180680  0.3866173822600844
  0.4596349225878839  0.7820066851011052  0.3856549157425145
  0.6050317847861886  0.6415956040104763  0.5126593599293955
  0.5019233106774228  0.5965944935432637  0.6083342657561771
  0.4009120299468403  0.5293260829110253  0.5347652439125763
  0.4688462570510631  0.4128926904874157  0.4978822015840102
  0.5456846667726429  0.5247183745811368  0.4935811640800322
  0.6116406925074201  0.3536862321341292  0.4976856239496528
  0.6430469898897425  0.6286297874838600  0.6388017338869791
  0.7364796240646557  0.5838905164398493  0.5390401432378072
  0.6822163601912948  0.4689518154222450  0.5053212092329211
  0.6464864619679336  0.5007693016561160  0.6250560736048304
  0.4996633792000268  0.4631703119060893  0.6134708564679647
  0.6094469608332852  0.3758905629961131  0.6230271350269302
  0.4535318787596104  0.6555218870899380  0.4982379935786373

  0.00000000E+00  0.00000000E+00  0.00000000E+00
  0.00000000E+00  0.00000000E+00  0.00000000E+00
  0.00000000E+00  0.00000000E+00  0.00000000E+00
  0.00000000E+00  0.00000000E+00  0.00000000E+00
  0.00000000E+00  0.00000000E+00  0.00000000E+00
  0.00000000E+00  0.00000000E+00  0.00000000E+00
  0.00000000E+00  0.00000000E+00  0.00000000E+00
  0.00000000E+00  0.00000000E+00  0.00000000E+00
  0.00000000E+00  0.00000000E+00  0.00000000E+00
  0.00000000E+00  0.00000000E+00  0.00000000E+00
  0.00000000E+00  0.00000000E+00  0.00000000E+00
  0.00000000E+00  0.00000000E+00  0.00000000E+00
  0.00000000E+00  0.00000000E+00  0.00000000E+00
  0.00000000E+00  0.00000000E+00  0.00000000E+00
  0.00000000E+00  0.00000000E+00  0.00000000E+00
  0.00000000E+00  0.00000000E+00  0.00000000E+00
  0.00000000E+00  0.00000000E+00  0.00000000E+00
  0.00000000E+00  0.00000000E+00  0.00000000E+00
  0.00000000E+00  0.00000000E+00  0.00000000E+00
  0.00000000E+00  0.00000000E+00  0.00000000E+00
  0.00000000E+00  0.00000000E+00  0.00000000E+00
  0.00000000E+00  0.00000000E+00  0.00000000E+00
  0.00000000E+00  0.00000000E+00  0.00000000E+00
  0.00000000E+00  0.00000000E+00  0.00000000E+00
  0.00000000E+00  0.00000000E+00  0.00000000E+00
  0.00000000E+00  0.00000000E+00  0.00000000E+00
  0.00000000E+00  0.00000000E+00  0.00000000E+00
  0.00000000E+00  0.00000000E+00  0.00000000E+00
  0.00000000E+00  0.00000000E+00  0.00000000E+00
  0.00000000E+00  0.00000000E+00  0.00000000E+00
  0.00000000E+00  0.00000000E+00  0.00000000E+00
  0.00000000E+00  0.00000000E+00  0.00000000E+00
  0.00000000E+00  0.00000000E+00  0.00000000E+00
  0.00000000E+00  0.00000000E+00  0.00000000E+00
  0.00000000E+00  0.00000000E+00  0.00000000E+00
  0.00000000E+00  0.00000000E+00  0.00000000E+00
  0.00000000E+00  0.00000000E+00  0.00000000E+00
  0.00000000E+00  0.00000000E+00  0.00000000E+00
  0.00000000E+00  0.00000000E+00  0.00000000E+00
  0.00000000E+00  0.00000000E+00  0.00000000E+00
  0.00000000E+00  0.00000000E+00  0.00000000E+00
  0.00000000E+00  0.00000000E+00  0.00000000E+00
  0.00000000E+00  0.00000000E+00  0.00000000E+00
  0.00000000E+00  0.00000000E+00  0.00000000E+00
  0.00000000E+00  0.00000000E+00  0.00000000E+00
  0.00000000E+00  0.00000000E+00  0.00000000E+00
  0.00000000E+00  0.00000000E+00  0.00000000E+00
  0.00000000E+00  0.00000000E+00  0.00000000E+00
  0.00000000E+00  0.00000000E+00  0.00000000E+00
  0.00000000E+00  0.00000000E+00  0.00000000E+00
  0.00000000E+00  0.00000000E+00  0.00000000E+00
  0.00000000E+00  0.00000000E+00  0.00000000E+00
  0.00000000E+00  0.00000000E+00  0.00000000E+00
  0.00000000E+00  0.00000000E+00  0.00000000E+00
  0.00000000E+00  0.00000000E+00  0.00000000E+00
  0.00000000E+00  0.00000000E+00  0.00000000E+00
  0.00000000E+00  0.00000000E+00  0.00000000E+00
  0.00000000E+00  0.00000000E+00  0.00000000E+00
  0.00000000E+00  0.00000000E+00  0.00000000E+00
  0.00000000E+00  0.00000000E+00  0.00000000E+00
  0.00000000E+00  0.00000000E+00  0.00000000E+00
  0.00000000E+00  0.00000000E+00  0.00000000E+00
  0.00000000E+00  0.00000000E+00  0.00000000E+00
  0.00000000E+00  0.00000000E+00  0.00000000E+00
  0.00000000E+00  0.00000000E+00  0.00000000E+00
  0.00000000E+00  0.00000000E+00  0.00000000E+00
  0.00000000E+00  0.00000000E+00  0.00000000E+00
  0.00000000E+00  0.00000000E+00  0.00000000E+00
  0.00000000E+00  0.00000000E+00  0.00000000E+00
  0.00000000E+00  0.00000000E+00  0.00000000E+00
  0.00000000E+00  0.00000000E+00  0.00000000E+00
  0.00000000E+00  0.00000000E+00  0.00000000E+00
  0.00000000E+00  0.00000000E+00  0.00000000E+00
  0.00000000E+00  0.00000000E+00  0.00000000E+00
  0.00000000E+00  0.00000000E+00  0.00000000E+00
  0.00000000E+00  0.00000000E+00  0.00000000E+00
  0.00000000E+00  0.00000000E+00  0.00000000E+00
  0.00000000E+00  0.00000000E+00  0.00000000E+00
  0.00000000E+00  0.00000000E+00  0.00000000E+00
  0.00000000E+00  0.00000000E+00  0.00000000E+00
  0.00000000E+00  0.00000000E+00  0.00000000E+00
  0.00000000E+00  0.00000000E+00  0.00000000E+00
  0.00000000E+00  0.00000000E+00  0.00000000E+00
  0.00000000E+00  0.00000000E+00  0.00000000E+00
  0.00000000E+00  0.00000000E+00  0.00000000E+00
  0.00000000E+00  0.00000000E+00  0.00000000E+00
  0.00000000E+00  0.00000000E+00  0.00000000E+00
  0.00000000E+00  0.00000000E+00  0.00000000E+00
  0.00000000E+00  0.00000000E+00  0.00000000E+00
  0.00000000E+00  0.00000000E+00  0.00000000E+00
  0.00000000E+00  0.00000000E+00  0.00000000E+00
  0.00000000E+00  0.00000000E+00  0.00000000E+00
  0.00000000E+00  0.00000000E+00  0.00000000E+00
  0.00000000E+00  0.00000000E+00  0.00000000E+00
  0.00000000E+00  0.00000000E+00  0.00000000E+00
  0.00000000E+00  0.00000000E+00  0.00000000E+00
  0.00000000E+00  0.00000000E+00  0.00000000E+00
  0.00000000E+00  0.00000000E+00  0.00000000E+00
  0.00000000E+00  0.00000000E+00  0.00000000E+00
  0.00000000E+00  0.00000000E+00  0.00000000E+00
  0.00000000E+00  0.00000000E+00  0.00000000E+00
  0.00000000E+00  0.00000000E+00  0.00000000E+00
  0.00000000E+00  0.00000000E+00  0.00000000E+00
  0.00000000E+00  0.00000000E+00  0.00000000E+00
  0.00000000E+00  0.00000000E+00  0.00000000E+00
  0.00000000E+00  0.00000000E+00  0.00000000E+00
  0.00000000E+00  0.00000000E+00  0.00000000E+00
  0.00000000E+00  0.00000000E+00  0.00000000E+00
  0.00000000E+00  0.00000000E+00  0.00000000E+00
  0.00000000E+00  0.00000000E+00  0.00000000E+00
  0.00000000E+00  0.00000000E+00  0.00000000E+00
  0.00000000E+00  0.00000000E+00  0.00000000E+00
  0.00000000E+00  0.00000000E+00  0.00000000E+00
  0.00000000E+00  0.00000000E+00  0.00000000E+00
  0.00000000E+00  0.00000000E+00  0.00000000E+00
  0.00000000E+00  0.00000000E+00  0.00000000E+00
  0.00000000E+00  0.00000000E+00  0.00000000E+00
  0.00000000E+00  0.00000000E+00  0.00000000E+00
  0.00000000E+00  0.00000000E+00  0.00000000E+00
  0.00000000E+00  0.00000000E+00  0.00000000E+00
  0.00000000E+00  0.00000000E+00  0.00000000E+00
  0.00000000E+00  0.00000000E+00  0.00000000E+00
  0.00000000E+00  0.00000000E+00  0.00000000E+00
  0.00000000E+00  0.00000000E+00  0.00000000E+00
  0.00000000E+00  0.00000000E+00  0.00000000E+00
  0.00000000E+00  0.00000000E+00  0.00000000E+00
  0.00000000E+00  0.00000000E+00  0.00000000E+00
  0.00000000E+00  0.00000000E+00  0.00000000E+00
  0.00000000E+00  0.00000000E+00  0.00000000E+00
  0.00000000E+00  0.00000000E+00  0.00000000E+00
  0.00000000E+00  0.00000000E+00  0.00000000E+00
  0.00000000E+00  0.00000000E+00  0.00000000E+00
  0.00000000E+00  0.00000000E+00  0.00000000E+00
  0.00000000E+00  0.00000000E+00  0.00000000E+00
  0.00000000E+00  0.00000000E+00  0.00000000E+00
  0.00000000E+00  0.00000000E+00  0.00000000E+00
  0.00000000E+00  0.00000000E+00  0.00000000E+00
  0.00000000E+00  0.00000000E+00  0.00000000E+00
  0.00000000E+00  0.00000000E+00  0.00000000E+00
  0.00000000E+00  0.00000000E+00  0.00000000E+00
  0.00000000E+00  0.00000000E+00  0.00000000E+00
