 C Pt                                   
   1.0000000000000000     
    17.0979999999999990    0.0000000000000000    0.0000000000000000
     0.0000000000000000   19.7420000000000009    0.0000000000000000
     0.0000000000000000    0.0000000000000000   20.0000000000000000
   C    Pt
   128    13
Direct
  0.0410681156242088  0.0933415783095058  0.3597612757187182
  0.0409111699853580  0.2182343497525407  0.3599531615845583
  0.0408902043548052  0.3433465278074582  0.3593736112240352
  0.0407759082773524  0.4683306712683763  0.3588384054487494
  0.0409075679776534  0.5934819103224178  0.3582787259550754
  0.0408825934831677  0.7186190376371179  0.3580276715985460
  0.0408645928163939  0.8434584823892922  0.3583750054703806
  0.0410527244801433  0.9685287436133828  0.3586965661563220
  0.9160668401412705  0.0309250644315205  0.3590387929676486
  0.9160666906411155  0.1557791254131594  0.3590120973993926
  0.9159537804886118  0.2806965877229836  0.3588100366859815
  0.9161676791041707  0.4056619152290540  0.3592822150873280
  0.9163736415159232  0.5309452522064440  0.3592481963860614
  0.9161237521239431  0.6561075640084910  0.3587140751124072
  0.9161278487687505  0.7811589251205719  0.3587012054217779
  0.9160393729905498  0.9059585064743884  0.3589431186964983
  0.7910092806461270  0.0933753149538701  0.3588458338825747
  0.7909971547959601  0.2181038744088647  0.3570335197634263
  0.7911640207677555  0.3429363944922538  0.3555603852204928
  0.7921075089000333  0.4681331279806163  0.3600166099211047
  0.7923768806202532  0.5936050972817219  0.3609943688892433
  0.7913704880895369  0.7188691109036358  0.3599990041899869
  0.7910327222421883  0.8436480036198933  0.3596551696616097
  0.7909756333565598  0.9684846179169617  0.3595187977625035
  0.6660047578945902  0.0308458469083207  0.3592114755345570
  0.6660393592610104  0.1556586195649852  0.3573714337865959
  0.6661659619894158  0.2802273099575474  0.3545075246886328
  0.6658534899100164  0.4048606917797900  0.3506767330687547
  0.6653900900671986  0.5303031045207072  0.3590346811121014
  0.6657718008482432  0.6567065913066712  0.3655689411710815
  0.6660112472538671  0.7814218817174335  0.3608656986422432
  0.6659361670785247  0.9061253112067631  0.3599515038761393
  0.5409048470577709  0.0931691377074838  0.3578105904981033
  0.5408218008556513  0.2178126047561857  0.3552734584526460
  0.5411402139253649  0.3434912340563678  0.3544229913649975
  0.5411223579428788  0.4685197898685053  0.3450271059392183
  0.5413913761774495  0.5938413047592405  0.3536969647675106
  0.5405554957022950  0.7187615820109825  0.3594685646021299
  0.5408560335668714  0.8434843393151685  0.3600034731390760
  0.5409664237578365  0.9682708103116190  0.3591908608107514
  0.4158519935109672  0.0307288871954631  0.3586831546707718
  0.4158734216179138  0.1556468021416302  0.3567750826598744
  0.4152334787254693  0.2802422485282666  0.3545554464899381
  0.4149650578214941  0.4061599423076692  0.3500028028834463
  0.4156055318844896  0.5304638702991603  0.3569769794955003
  0.4152907412433863  0.6567464298255488  0.3579893242236195
  0.4157293092078826  0.7812640399495095  0.3582651413510576
  0.4159623798041828  0.9059200635643410  0.3587703625384302
  0.2908343169151669  0.0932261818128469  0.3591453216861439
  0.2907589006114826  0.2182019951175206  0.3572519159120494
  0.2906197245374818  0.3434007537246664  0.3550750032540803
  0.2900997605902481  0.4684566305279766  0.3555435094280134
  0.2903087520436577  0.5936567442435127  0.3575894719586611
  0.2907485358355892  0.7185772342383088  0.3570425554176908
  0.2909077384027781  0.8435733787338217  0.3577136008189231
  0.2909450804857314  0.9684894210626562  0.3588439512913367
  0.1660830763766306  0.0309174585311854  0.3595320907262879
  0.1659352103174151  0.1556579187680950  0.3596079850768099
  0.1658250224204385  0.2809201409817225  0.3586690065597265
  0.1655663620041637  0.4058830874531628  0.3573423390545501
  0.1656137312757395  0.5309597032893091  0.3572400330220936
  0.1656688793868852  0.6560538056186745  0.3571291917654675
  0.1657944682926428  0.7809708837394761  0.3572108002341464
  0.1660170680453483  0.9061626546559657  0.3582794287539284
  0.9577858782020754  0.0934064350802412  0.3593012284101262
  0.9576056610828502  0.2182803813252738  0.3594645802346537
  0.9576990868054042  0.3432175587686449  0.3593916394452134
  0.9577092388071806  0.4682872342514177  0.3594526600397279
  0.9578193028119524  0.5934824935940951  0.3588780656465215
  0.9577602230428272  0.7186597197539999  0.3584673958199969
  0.9576977466465173  0.8434878473876788  0.3586897468402487
  0.9576909032377908  0.9684416318181540  0.3587728986450175
  0.8327150510106252  0.0308335381065973  0.3591890888520595
  0.8327182641134991  0.1557709793913631  0.3583911208711664
  0.8326881569616078  0.2806538629723339  0.3569813302177052
  0.8331543351121308  0.4054211133362506  0.3580698794862612
  0.8335146358076677  0.5311909724762885  0.3596757628607372
  0.8331550092019694  0.6560654152718220  0.3595253441487931
  0.8328300599313121  0.7812456389003357  0.3592411265908390
  0.8326875802881835  0.9060754090310228  0.3593742428627872
  0.7076790642240258  0.0933079564568131  0.3587765288775371
  0.7077368730007537  0.2179476391871772  0.3562208239339778
  0.7079007519070262  0.3425470445146602  0.3527850495820951
  0.7079451944941713  0.4675305832123411  0.3577177531121106
  0.7083743562768980  0.5934111718357544  0.3660974292090420
  0.7082625580476802  0.7195052022527715  0.3620367966983932
  0.7076833497044455  0.8438269693553149  0.3601897347784396
  0.7076189107132258  0.9684267923905717  0.3595765494206951
  0.5826836641310008  0.0307481585497805  0.3588428616198056
  0.5825472701824987  0.1556860152625740  0.3567158528747241
  0.5827971184942606  0.2800526425110626  0.3550492808457069
  0.5830081578954813  0.4061966940981105  0.3467027274487636
  0.5824120228867449  0.5310722351772781  0.3496904347044701
  0.5819363623185094  0.6562442142733044  0.3591580879502768
  0.5823874102318112  0.7811431336869935  0.3606089425330543
  0.5826679368972855  0.9059307421489458  0.3598305860305878
  0.4575418322907593  0.0931862901758973  0.3578965812875597
  0.4574007321863755  0.2178821247495395  0.3549357712809026
  0.4566173244757628  0.3431566413531306  0.3538835445911053
  0.4574803021028627  0.4678727588222216  0.3482746521400301
  0.4576156586684897  0.5940448959165994  0.3583698650021095
  0.4572232612738946  0.7188605651405024  0.3582912024890134
  0.4575318624703198  0.8436168275439400  0.3590685128896238
  0.4575557889637850  0.9683337555300261  0.3588819082739669
  0.3325037662515788  0.0308143835498157  0.3590949575038171
  0.3324759672636265  0.1557125199484280  0.3578708989585889
  0.3321984821172532  0.2807414383551204  0.3553050888890927
  0.3320518519944437  0.4059383910831222  0.3531458619165904
  0.3313384219097950  0.5309386022030405  0.3573169610555810
  0.3322416357122499  0.6562830815472566  0.3573756598721640
  0.3324662900929030  0.7811309639091508  0.3575396505257694
  0.3326532288193285  0.9060454948362061  0.3582913495264828
  0.2075255176090268  0.0932010072019713  0.3596058978308955
  0.2074866800379659  0.2182102867393351  0.3586644196243588
  0.2074942921653891  0.3434593573973672  0.3571787991249964
  0.2070161467717489  0.4684066835710798  0.3566195297225732
  0.2072486559272450  0.5935401262984776  0.3571748264776858
  0.2073695769135100  0.7184927990050047  0.3568586487586616
  0.2074906950090759  0.8434965949098211  0.3575869461113156
  0.2075870449044258  0.9686085035421991  0.3589394933411532
  0.0828007094060437  0.0309816411697152  0.3594121119952670
  0.0826294520573243  0.1557498990678730  0.3599256146385953
  0.0825332264496786  0.2808128272078732  0.3595488547324507
  0.0824572073254134  0.4058242914354526  0.3586569132715720
  0.0824427714302514  0.5308916235976734  0.3580527141665927
  0.0825403081646433  0.6560583609642751  0.3577640146801474
  0.0825337806069408  0.7809938623428949  0.3578242957671675
  0.0826068116431588  0.9059669882164427  0.3584267711525135
  0.6041131046940197  0.3977825092822257  0.5448606661423735
  0.6200997543733640  0.4665029295374622  0.6521349364577136
  0.4628943692248121  0.4389707711867974  0.5406204233280774
  0.6961826126543400  0.4756134958395195  0.4659935569524812
  0.5095929867813127  0.3468861686189381  0.4615465630147410
  0.4714446770368565  0.6091276253798231  0.5762554496826169
  0.4795921665159096  0.5027968919097647  0.6492742085219725
  0.5757459206965743  0.5344363065583710  0.5196607495738246
  0.6115186654198316  0.6604307107359643  0.5810172409669925
  0.7452997806575822  0.4304784076738645  0.5831406512850686
  0.7001222030667968  0.5569449990803064  0.5878965779824166
  0.4417455105538829  0.5453545323305319  0.4652217461082435
  0.6771286712508315  0.6218393544020701  0.4709712526123684

  0.00000000E+00  0.00000000E+00  0.00000000E+00
  0.00000000E+00  0.00000000E+00  0.00000000E+00
  0.00000000E+00  0.00000000E+00  0.00000000E+00
  0.00000000E+00  0.00000000E+00  0.00000000E+00
  0.00000000E+00  0.00000000E+00  0.00000000E+00
  0.00000000E+00  0.00000000E+00  0.00000000E+00
  0.00000000E+00  0.00000000E+00  0.00000000E+00
  0.00000000E+00  0.00000000E+00  0.00000000E+00
  0.00000000E+00  0.00000000E+00  0.00000000E+00
  0.00000000E+00  0.00000000E+00  0.00000000E+00
  0.00000000E+00  0.00000000E+00  0.00000000E+00
  0.00000000E+00  0.00000000E+00  0.00000000E+00
  0.00000000E+00  0.00000000E+00  0.00000000E+00
  0.00000000E+00  0.00000000E+00  0.00000000E+00
  0.00000000E+00  0.00000000E+00  0.00000000E+00
  0.00000000E+00  0.00000000E+00  0.00000000E+00
  0.00000000E+00  0.00000000E+00  0.00000000E+00
  0.00000000E+00  0.00000000E+00  0.00000000E+00
  0.00000000E+00  0.00000000E+00  0.00000000E+00
  0.00000000E+00  0.00000000E+00  0.00000000E+00
  0.00000000E+00  0.00000000E+00  0.00000000E+00
  0.00000000E+00  0.00000000E+00  0.00000000E+00
  0.00000000E+00  0.00000000E+00  0.00000000E+00
  0.00000000E+00  0.00000000E+00  0.00000000E+00
  0.00000000E+00  0.00000000E+00  0.00000000E+00
  0.00000000E+00  0.00000000E+00  0.00000000E+00
  0.00000000E+00  0.00000000E+00  0.00000000E+00
  0.00000000E+00  0.00000000E+00  0.00000000E+00
  0.00000000E+00  0.00000000E+00  0.00000000E+00
  0.00000000E+00  0.00000000E+00  0.00000000E+00
  0.00000000E+00  0.00000000E+00  0.00000000E+00
  0.00000000E+00  0.00000000E+00  0.00000000E+00
  0.00000000E+00  0.00000000E+00  0.00000000E+00
  0.00000000E+00  0.00000000E+00  0.00000000E+00
  0.00000000E+00  0.00000000E+00  0.00000000E+00
  0.00000000E+00  0.00000000E+00  0.00000000E+00
  0.00000000E+00  0.00000000E+00  0.00000000E+00
  0.00000000E+00  0.00000000E+00  0.00000000E+00
  0.00000000E+00  0.00000000E+00  0.00000000E+00
  0.00000000E+00  0.00000000E+00  0.00000000E+00
  0.00000000E+00  0.00000000E+00  0.00000000E+00
  0.00000000E+00  0.00000000E+00  0.00000000E+00
  0.00000000E+00  0.00000000E+00  0.00000000E+00
  0.00000000E+00  0.00000000E+00  0.00000000E+00
  0.00000000E+00  0.00000000E+00  0.00000000E+00
  0.00000000E+00  0.00000000E+00  0.00000000E+00
  0.00000000E+00  0.00000000E+00  0.00000000E+00
  0.00000000E+00  0.00000000E+00  0.00000000E+00
  0.00000000E+00  0.00000000E+00  0.00000000E+00
  0.00000000E+00  0.00000000E+00  0.00000000E+00
  0.00000000E+00  0.00000000E+00  0.00000000E+00
  0.00000000E+00  0.00000000E+00  0.00000000E+00
  0.00000000E+00  0.00000000E+00  0.00000000E+00
  0.00000000E+00  0.00000000E+00  0.00000000E+00
  0.00000000E+00  0.00000000E+00  0.00000000E+00
  0.00000000E+00  0.00000000E+00  0.00000000E+00
  0.00000000E+00  0.00000000E+00  0.00000000E+00
  0.00000000E+00  0.00000000E+00  0.00000000E+00
  0.00000000E+00  0.00000000E+00  0.00000000E+00
  0.00000000E+00  0.00000000E+00  0.00000000E+00
  0.00000000E+00  0.00000000E+00  0.00000000E+00
  0.00000000E+00  0.00000000E+00  0.00000000E+00
  0.00000000E+00  0.00000000E+00  0.00000000E+00
  0.00000000E+00  0.00000000E+00  0.00000000E+00
  0.00000000E+00  0.00000000E+00  0.00000000E+00
  0.00000000E+00  0.00000000E+00  0.00000000E+00
  0.00000000E+00  0.00000000E+00  0.00000000E+00
  0.00000000E+00  0.00000000E+00  0.00000000E+00
  0.00000000E+00  0.00000000E+00  0.00000000E+00
  0.00000000E+00  0.00000000E+00  0.00000000E+00
  0.00000000E+00  0.00000000E+00  0.00000000E+00
  0.00000000E+00  0.00000000E+00  0.00000000E+00
  0.00000000E+00  0.00000000E+00  0.00000000E+00
  0.00000000E+00  0.00000000E+00  0.00000000E+00
  0.00000000E+00  0.00000000E+00  0.00000000E+00
  0.00000000E+00  0.00000000E+00  0.00000000E+00
  0.00000000E+00  0.00000000E+00  0.00000000E+00
  0.00000000E+00  0.00000000E+00  0.00000000E+00
  0.00000000E+00  0.00000000E+00  0.00000000E+00
  0.00000000E+00  0.00000000E+00  0.00000000E+00
  0.00000000E+00  0.00000000E+00  0.00000000E+00
  0.00000000E+00  0.00000000E+00  0.00000000E+00
  0.00000000E+00  0.00000000E+00  0.00000000E+00
  0.00000000E+00  0.00000000E+00  0.00000000E+00
  0.00000000E+00  0.00000000E+00  0.00000000E+00
  0.00000000E+00  0.00000000E+00  0.00000000E+00
  0.00000000E+00  0.00000000E+00  0.00000000E+00
  0.00000000E+00  0.00000000E+00  0.00000000E+00
  0.00000000E+00  0.00000000E+00  0.00000000E+00
  0.00000000E+00  0.00000000E+00  0.00000000E+00
  0.00000000E+00  0.00000000E+00  0.00000000E+00
  0.00000000E+00  0.00000000E+00  0.00000000E+00
  0.00000000E+00  0.00000000E+00  0.00000000E+00
  0.00000000E+00  0.00000000E+00  0.00000000E+00
  0.00000000E+00  0.00000000E+00  0.00000000E+00
  0.00000000E+00  0.00000000E+00  0.00000000E+00
  0.00000000E+00  0.00000000E+00  0.00000000E+00
  0.00000000E+00  0.00000000E+00  0.00000000E+00
  0.00000000E+00  0.00000000E+00  0.00000000E+00
  0.00000000E+00  0.00000000E+00  0.00000000E+00
  0.00000000E+00  0.00000000E+00  0.00000000E+00
  0.00000000E+00  0.00000000E+00  0.00000000E+00
  0.00000000E+00  0.00000000E+00  0.00000000E+00
  0.00000000E+00  0.00000000E+00  0.00000000E+00
  0.00000000E+00  0.00000000E+00  0.00000000E+00
  0.00000000E+00  0.00000000E+00  0.00000000E+00
  0.00000000E+00  0.00000000E+00  0.00000000E+00
  0.00000000E+00  0.00000000E+00  0.00000000E+00
  0.00000000E+00  0.00000000E+00  0.00000000E+00
  0.00000000E+00  0.00000000E+00  0.00000000E+00
  0.00000000E+00  0.00000000E+00  0.00000000E+00
  0.00000000E+00  0.00000000E+00  0.00000000E+00
  0.00000000E+00  0.00000000E+00  0.00000000E+00
  0.00000000E+00  0.00000000E+00  0.00000000E+00
  0.00000000E+00  0.00000000E+00  0.00000000E+00
  0.00000000E+00  0.00000000E+00  0.00000000E+00
  0.00000000E+00  0.00000000E+00  0.00000000E+00
  0.00000000E+00  0.00000000E+00  0.00000000E+00
  0.00000000E+00  0.00000000E+00  0.00000000E+00
  0.00000000E+00  0.00000000E+00  0.00000000E+00
  0.00000000E+00  0.00000000E+00  0.00000000E+00
  0.00000000E+00  0.00000000E+00  0.00000000E+00
  0.00000000E+00  0.00000000E+00  0.00000000E+00
  0.00000000E+00  0.00000000E+00  0.00000000E+00
  0.00000000E+00  0.00000000E+00  0.00000000E+00
  0.00000000E+00  0.00000000E+00  0.00000000E+00
  0.00000000E+00  0.00000000E+00  0.00000000E+00
  0.00000000E+00  0.00000000E+00  0.00000000E+00
  0.00000000E+00  0.00000000E+00  0.00000000E+00
  0.00000000E+00  0.00000000E+00  0.00000000E+00
  0.00000000E+00  0.00000000E+00  0.00000000E+00
  0.00000000E+00  0.00000000E+00  0.00000000E+00
  0.00000000E+00  0.00000000E+00  0.00000000E+00
  0.00000000E+00  0.00000000E+00  0.00000000E+00
  0.00000000E+00  0.00000000E+00  0.00000000E+00
  0.00000000E+00  0.00000000E+00  0.00000000E+00
  0.00000000E+00  0.00000000E+00  0.00000000E+00
  0.00000000E+00  0.00000000E+00  0.00000000E+00
  0.00000000E+00  0.00000000E+00  0.00000000E+00
  0.00000000E+00  0.00000000E+00  0.00000000E+00
  0.00000000E+00  0.00000000E+00  0.00000000E+00
